# Hz S RI R 50.0 
!freq ReS11 ImS11
1000000000.0 -1.00000000000e+00 0.00000000000e+00
2000000000.0 -1.00000000000e+00 0.00000000000e+00
3000000000.0 -1.00000000000e+00 0.00000000000e+00
4000000000.0 -1.00000000000e+00 0.00000000000e+00
5000000000.0 -1.00000000000e+00 0.00000000000e+00
6000000000.0 -1.00000000000e+00 0.00000000000e+00
7000000000.0 -1.00000000000e+00 0.00000000000e+00
8000000000.0 -1.00000000000e+00 0.00000000000e+00
9000000000.0 -1.00000000000e+00 0.00000000000e+00
10000000000.0 -1.00000000000e+00 0.00000000000e+00
11000000000.0 -1.00000000000e+00 0.00000000000e+00
12000000000.0 -1.00000000000e+00 0.00000000000e+00
13000000000.0 -1.00000000000e+00 0.00000000000e+00
14000000000.0 -1.00000000000e+00 0.00000000000e+00
15000000000.0 -1.00000000000e+00 0.00000000000e+00
16000000000.0 -1.00000000000e+00 0.00000000000e+00
17000000000.0 -1.00000000000e+00 0.00000000000e+00
18000000000.0 -1.00000000000e+00 0.00000000000e+00
19000000000.0 -1.00000000000e+00 0.00000000000e+00
20000000000.0 -1.00000000000e+00 0.00000000000e+00
21000000000.0 -1.00000000000e+00 0.00000000000e+00
22000000000.0 -1.00000000000e+00 0.00000000000e+00
23000000000.0 -1.00000000000e+00 0.00000000000e+00
24000000000.0 -1.00000000000e+00 0.00000000000e+00
25000000000.0 -1.00000000000e+00 0.00000000000e+00
26000000000.0 -1.00000000000e+00 0.00000000000e+00
