# Hz S RI R 50.0 
!freq ReS11 ImS11 ReS21 ImS21 ReS12 ImS12 ReS22 ImS22
1000000000.0 0.00000000000e+00 0.00000000000e+00 9.98026728428e-01 -6.27905195293e-02 9.98026728428e-01 -6.27905195293e-02 0.00000000000e+00 0.00000000000e+00
2000000000.0 0.00000000000e+00 0.00000000000e+00 9.92114701314e-01 -1.25333233564e-01 9.92114701314e-01 -1.25333233564e-01 0.00000000000e+00 0.00000000000e+00
3000000000.0 0.00000000000e+00 0.00000000000e+00 9.82287250729e-01 -1.87381314586e-01 9.82287250729e-01 -1.87381314586e-01 0.00000000000e+00 0.00000000000e+00
4000000000.0 0.00000000000e+00 0.00000000000e+00 9.68583161129e-01 -2.48689887165e-01 9.68583161129e-01 -2.48689887165e-01 0.00000000000e+00 0.00000000000e+00
5000000000.0 0.00000000000e+00 0.00000000000e+00 9.51056516295e-01 -3.09016994375e-01 9.51056516295e-01 -3.09016994375e-01 0.00000000000e+00 0.00000000000e+00
6000000000.0 0.00000000000e+00 0.00000000000e+00 9.29776485888e-01 -3.68124552685e-01 9.29776485888e-01 -3.68124552685e-01 0.00000000000e+00 0.00000000000e+00
7000000000.0 0.00000000000e+00 0.00000000000e+00 9.04827052466e-01 -4.25779291565e-01 9.04827052466e-01 -4.25779291565e-01 0.00000000000e+00 0.00000000000e+00
8000000000.0 0.00000000000e+00 0.00000000000e+00 8.76306680044e-01 -4.81753674102e-01 8.76306680044e-01 -4.81753674102e-01 0.00000000000e+00 0.00000000000e+00
9000000000.0 0.00000000000e+00 0.00000000000e+00 8.44327925502e-01 -5.35826794979e-01 8.44327925502e-01 -5.35826794979e-01 0.00000000000e+00 0.00000000000e+00
10000000000.0 0.00000000000e+00 0.00000000000e+00 8.09016994375e-01 -5.87785252292e-01 8.09016994375e-01 -5.87785252292e-01 0.00000000000e+00 0.00000000000e+00
11000000000.0 0.00000000000e+00 0.00000000000e+00 7.70513242776e-01 -6.37423989749e-01 7.70513242776e-01 -6.37423989749e-01 0.00000000000e+00 0.00000000000e+00
12000000000.0 0.00000000000e+00 0.00000000000e+00 7.28968627421e-01 -6.84547105929e-01 7.28968627421e-01 -6.84547105929e-01 0.00000000000e+00 0.00000000000e+00
13000000000.0 0.00000000000e+00 0.00000000000e+00 6.84547105929e-01 -7.28968627421e-01 6.84547105929e-01 -7.28968627421e-01 0.00000000000e+00 0.00000000000e+00
14000000000.0 0.00000000000e+00 0.00000000000e+00 6.37423989749e-01 -7.70513242776e-01 6.37423989749e-01 -7.70513242776e-01 0.00000000000e+00 0.00000000000e+00
15000000000.0 0.00000000000e+00 0.00000000000e+00 5.87785252292e-01 -8.09016994375e-01 5.87785252292e-01 -8.09016994375e-01 0.00000000000e+00 0.00000000000e+00
16000000000.0 0.00000000000e+00 0.00000000000e+00 5.35826794979e-01 -8.44327925502e-01 5.35826794979e-01 -8.44327925502e-01 0.00000000000e+00 0.00000000000e+00
17000000000.0 0.00000000000e+00 0.00000000000e+00 4.81753674102e-01 -8.76306680044e-01 4.81753674102e-01 -8.76306680044e-01 0.00000000000e+00 0.00000000000e+00
18000000000.0 0.00000000000e+00 0.00000000000e+00 4.25779291565e-01 -9.04827052466e-01 4.25779291565e-01 -9.04827052466e-01 0.00000000000e+00 0.00000000000e+00
19000000000.0 0.00000000000e+00 0.00000000000e+00 3.68124552685e-01 -9.29776485888e-01 3.68124552685e-01 -9.29776485888e-01 0.00000000000e+00 0.00000000000e+00
20000000000.0 0.00000000000e+00 0.00000000000e+00 3.09016994375e-01 -9.51056516295e-01 3.09016994375e-01 -9.51056516295e-01 0.00000000000e+00 0.00000000000e+00
21000000000.0 0.00000000000e+00 0.00000000000e+00 2.48689887165e-01 -9.68583161129e-01 2.48689887165e-01 -9.68583161129e-01 0.00000000000e+00 0.00000000000e+00
22000000000.0 0.00000000000e+00 0.00000000000e+00 1.87381314586e-01 -9.82287250729e-01 1.87381314586e-01 -9.82287250729e-01 0.00000000000e+00 0.00000000000e+00
23000000000.0 0.00000000000e+00 0.00000000000e+00 1.25333233564e-01 -9.92114701314e-01 1.25333233564e-01 -9.92114701314e-01 0.00000000000e+00 0.00000000000e+00
24000000000.0 0.00000000000e+00 0.00000000000e+00 6.27905195293e-02 -9.98026728428e-01 6.27905195293e-02 -9.98026728428e-01 0.00000000000e+00 0.00000000000e+00
25000000000.0 0.00000000000e+00 0.00000000000e+00 2.83276944882e-16 -1.00000000000e+00 2.83276944882e-16 -1.00000000000e+00 0.00000000000e+00 0.00000000000e+00
26000000000.0 0.00000000000e+00 0.00000000000e+00 -6.27905195293e-02 -9.98026728428e-01 -6.27905195293e-02 -9.98026728428e-01 0.00000000000e+00 0.00000000000e+00
