# Hz S RI R 50.0 
!freq ReS11 ImS11
1000000000.0 8.09016994375e-01 -5.87785252292e-01
2000000000.0 -3.09016994375e-01 9.51056516295e-01
3000000000.0 -3.09016994375e-01 -9.51056516295e-01
4000000000.0 8.09016994375e-01 5.87785252292e-01
5000000000.0 -1.00000000000e+00 -7.34788079488e-16
6000000000.0 8.09016994375e-01 -5.87785252292e-01
7000000000.0 -3.09016994375e-01 9.51056516295e-01
8000000000.0 -3.09016994375e-01 -9.51056516295e-01
9000000000.0 8.09016994375e-01 5.87785252292e-01
10000000000.0 -1.00000000000e+00 -1.46957615898e-15
11000000000.0 8.09016994375e-01 -5.87785252292e-01
12000000000.0 -3.09016994375e-01 9.51056516295e-01
13000000000.0 -3.09016994375e-01 -9.51056516295e-01
14000000000.0 8.09016994375e-01 5.87785252292e-01
15000000000.0 -1.00000000000e+00 -9.30979159607e-15
16000000000.0 8.09016994375e-01 -5.87785252292e-01
17000000000.0 -3.09016994375e-01 9.51056516295e-01
18000000000.0 -3.09016994375e-01 -9.51056516295e-01
19000000000.0 8.09016994375e-01 5.87785252292e-01
20000000000.0 -1.00000000000e+00 -2.93915231795e-15
21000000000.0 8.09016994375e-01 -5.87785252292e-01
22000000000.0 -3.09016994375e-01 9.51056516295e-01
23000000000.0 -3.09016994375e-01 -9.51056516295e-01
24000000000.0 8.09016994375e-01 5.87785252292e-01
25000000000.0 -1.00000000000e+00 -1.07793677550e-14
26000000000.0 8.09016994375e-01 -5.87785252292e-01
