!Mini-Circuits Laboratory
!S-Parameters
!Type: ATTENUATOR - Fixed
!Model: BW-S3-2W263A+
!Run / Lot / Date Code: YE0115 / QN2206359 / N/A
!Fixture: N/A
!Network Analyzer: PNA N5224A;  Serial number: 76159
!Date: 4/6/2022 at 2:28:03 PM
!S/N: Unit# 1 (U1_25C)
!Test Conditions: Z:50 OHM System, INPUT POWER: 0dBm, TEMP: 25°C
!Tested with: 2 port calibartion with ECal. De-embedded F/F adapter on port 1.
!
# Hz  S  dB  R  50
!Frequency    S11 dB        S11 Deg       S21 dB        S21 Deg       S12 dB        S12 Deg       S22 dB        S22 Deg       
10000000      -56.8255200   -71.0632700   -2.5479830    -0.3070256    -2.5459150    -0.3095944    -46.2910700   164.4978000   
20000000      -65.1771700   -157.8138000  -2.5501140    -0.6081914    -2.5487530    -0.6078100    -46.7943500   171.2714000   
30000000      -63.4972900   143.6004000   -2.5501640    -0.9129558    -2.5484740    -0.9042005    -46.8415800   172.7231000   
40000000      -63.8407700   97.6774400    -2.5516040    -1.2136020    -2.5509280    -1.1980990    -47.1539300   172.6269000   
50000000      -64.9572800   66.5418500    -2.5525290    -1.5039920    -2.5523140    -1.4983160    -47.4567000   173.0874000   
60000000      -67.2739200   14.4293200    -2.5516310    -1.8081570    -2.5541010    -1.8061130    -47.8380900   173.3350000   
70000000      -69.3276600   4.5576870     -2.5523340    -2.0928750    -2.5547500    -2.0964530    -47.8580400   173.6433000   
80000000      -74.6335500   33.3995600    -2.5521540    -2.3886630    -2.5556090    -2.3854820    -48.1057700   172.7771000   
90000000      -69.7884800   80.0648400    -2.5520030    -2.6809030    -2.5558180    -2.6790500    -48.2552600   171.9263000   
100000000     -65.5881100   30.0171800    -2.5534960    -2.9735300    -2.5569430    -2.9708890    -48.4904900   172.1069000   
150000000     -60.4244600   -12.4256200   -2.5613660    -4.4267470    -2.5598470    -4.4197240    -49.3346800   174.7249000   
200000000     -57.1177000   -34.2441200   -2.5620680    -5.8765450    -2.5636520    -5.8711730    -50.4227300   177.0754000   
250000000     -53.9140600   -44.7338600   -2.5647790    -7.3208230    -2.5631530    -7.3176760    -50.5282800   -178.6593000  
300000000     -54.0506200   -32.9196500   -2.5642280    -8.7659430    -2.5657190    -8.7692790    -51.8065900   179.8729000   
350000000     -53.4068100   -29.6165800   -2.5647050    -10.2165900   -2.5663360    -10.2146100   -51.4777600   177.2660000   
400000000     -51.4980100   -41.2044500   -2.5670100    -11.6650000   -2.5677220    -11.6617200   -50.6472300   -176.7341000  
450000000     -51.6906700   -36.9426300   -2.5705200    -13.1129900   -2.5674110    -13.1092300   -50.8013000   -172.0075000  
500000000     -52.4597300   -43.7328800   -2.5718120    -14.5651800   -2.5695330    -14.5538300   -51.1136400   -167.7219000  
550000000     -50.9514700   -53.5717200   -2.5681510    -16.0065500   -2.5704840    -16.0049300   -51.0404200   -163.0125000  
600000000     -50.5788800   -50.9175800   -2.5702980    -17.4554000   -2.5706730    -17.4496400   -51.5414900   -163.5080000  
650000000     -50.8300700   -58.2192800   -2.5721140    -18.9031300   -2.5716030    -18.9024700   -52.4352800   -155.7041000  
700000000     -49.3572400   -68.7766400   -2.5733780    -20.3524400   -2.5723460    -20.3466900   -51.9972300   -152.2427000  
750000000     -48.9081100   -60.1321200   -2.5750760    -21.8000500   -2.5729870    -21.7936100   -51.5617900   -154.4985000  
800000000     -50.0579600   -67.5547400   -2.5743760    -23.2503100   -2.5725030    -23.2396700   -52.1747300   -147.9824000  
850000000     -49.5281300   -76.3730500   -2.5772250    -24.6938700   -2.5737190    -24.6895500   -51.8757800   -146.6377000  
900000000     -49.7098500   -81.9259000   -2.5768890    -26.1407100   -2.5746290    -26.1393800   -51.7749700   -145.3969000  
950000000     -48.9831800   -90.4574100   -2.5776680    -27.5894000   -2.5747550    -27.5847300   -51.7442700   -139.4328000  
1000000000    -47.5481400   -92.0223300   -2.5784910    -29.0386600   -2.5744090    -29.0333100   -51.7759600   -142.1587000  
1050000000    -47.3650800   -91.0720100   -2.5759580    -30.4852100   -2.5752810    -30.4845000   -51.2457900   -138.9627000  
1100000000    -46.5298700   -96.7457500   -2.5762010    -31.9352700   -2.5761540    -31.9281200   -50.8919100   -132.2078000  
1150000000    -45.9107100   -95.7799100   -2.5777550    -33.3835800   -2.5763440    -33.3761000   -50.3350800   -135.7002000  
1200000000    -45.8968900   -94.2926600   -2.5785470    -34.8301500   -2.5774230    -34.8261700   -49.8166700   -137.5402000  
1250000000    -45.9241400   -100.4502000  -2.5792810    -36.2775300   -2.5780850    -36.2744900   -49.4648700   -133.1927000  
1300000000    -44.9449100   -104.2361000  -2.5790540    -37.7259300   -2.5785080    -37.7205700   -48.6529800   -132.6296000  
1350000000    -43.9800200   -102.6199000  -2.5791280    -39.1725300   -2.5792370    -39.1693500   -48.0887900   -134.4776000  
1400000000    -43.8292500   -102.6875000  -2.5788820    -40.6215300   -2.5786580    -40.6190500   -47.8712900   -134.0607000  
1450000000    -43.3612100   -107.1151000  -2.5795770    -42.0705000   -2.5789410    -42.0655400   -47.1392300   -133.6183000  
1500000000    -43.0849800   -108.1553000  -2.5806190    -43.5203500   -2.5786930    -43.5137200   -46.4692400   -132.8611000  
1550000000    -42.9184900   -111.0699000  -2.5796920    -44.9668800   -2.5797090    -44.9593500   -46.2871900   -132.8387000  
1600000000    -42.4238700   -109.8485000  -2.5803950    -46.4171100   -2.5802850    -46.4075600   -45.9133100   -135.5306000  
1650000000    -42.6791900   -111.2718000  -2.5800280    -47.8654400   -2.5801470    -47.8583000   -45.6583700   -134.8258000  
1700000000    -42.1736100   -115.4508000  -2.5795080    -49.3159000   -2.5800620    -49.3064900   -45.0745000   -132.8107000  
1750000000    -41.7526600   -118.4022000  -2.5802090    -50.7665300   -2.5799260    -50.7551700   -44.2656100   -135.5907000  
1800000000    -41.1896000   -117.0073000  -2.5806390    -52.2123900   -2.5808800    -52.2013100   -43.9945200   -138.8049000  
1850000000    -41.7625400   -117.5430000  -2.5800360    -53.6612200   -2.5815680    -53.6501000   -44.0388700   -138.5739000  
1900000000    -40.9851300   -121.7856000  -2.5795090    -55.1136100   -2.5811700    -55.1025000   -43.2605000   -138.9319000  
1950000000    -40.6190900   -122.8099000  -2.5812090    -56.5600200   -2.5818250    -56.5512500   -42.8739500   -140.8509000  
2000000000    -40.6522400   -120.9892000  -2.5818250    -58.0075400   -2.5817710    -57.9946600   -42.6279100   -142.2011000  
2050000000    -40.0612200   -121.3386000  -2.5840130    -59.4533600   -2.5823630    -59.4444000   -42.1469700   -144.9782000  
2100000000    -39.7723700   -123.1124000  -2.5844770    -60.9056600   -2.5833600    -60.8904700   -41.7377100   -146.6064000  
2150000000    -39.8314900   -123.6670000  -2.5843530    -62.3532100   -2.5831050    -62.3410400   -41.3650100   -146.4810000  
2200000000    -39.5141900   -126.3282000  -2.5864210    -63.8006600   -2.5832140    -63.7897800   -41.2129600   -148.8495000  
2250000000    -39.4824600   -125.9782000  -2.5862370    -65.2481100   -2.5838850    -65.2363800   -41.3510800   -151.4870000  
2300000000    -39.6511400   -129.7563000  -2.5877520    -66.6962100   -2.5856040    -66.6876700   -41.0548400   -151.0347000  
2350000000    -38.9099500   -130.1650000  -2.5863490    -68.1414200   -2.5861700    -68.1366700   -40.6315100   -152.7656000  
2400000000    -38.8364100   -128.8502000  -2.5878910    -69.5886800   -2.5868010    -69.5821200   -40.5741500   -154.6753000  
2450000000    -39.5861200   -129.7185000  -2.5887280    -71.0365100   -2.5863460    -71.0308400   -40.6603800   -155.2574000  
2500000000    -39.5993200   -130.7585000  -2.5892620    -72.4841500   -2.5866000    -72.4830300   -40.7075600   -156.4604000  
2550000000    -39.2544500   -134.8558000  -2.5888660    -73.9293100   -2.5866160    -73.9313300   -40.3457900   -158.8938000  
2600000000    -39.7491800   -135.9371000  -2.5900090    -75.3754400   -2.5866050    -75.3756800   -40.3694600   -160.3017000  
2650000000    -39.4273100   -134.7696000  -2.5913410    -76.8285800   -2.5871510    -76.8243900   -40.5620000   -162.9592000  
2700000000    -39.6136700   -137.1797000  -2.5895810    -78.2728300   -2.5881060    -78.2721800   -40.3293700   -165.9131000  
2750000000    -39.6898600   -136.0049000  -2.5916870    -79.7204700   -2.5877390    -79.7208000   -40.5680100   -166.2003000  
2800000000    -39.3680300   -139.5170000  -2.5925330    -81.1653900   -2.5884320    -81.1672700   -40.2881300   -168.4428000  
2850000000    -39.7682300   -136.5201000  -2.5910120    -82.6165500   -2.5892190    -82.6148100   -40.4685200   -169.9803000  
2900000000    -40.6135600   -138.6501000  -2.5924980    -84.0645000   -2.5882940    -84.0645800   -40.9489900   -169.5630000  
2950000000    -40.6706800   -145.9141000  -2.5916680    -85.5106700   -2.5903540    -85.5120500   -40.6250400   -169.6012000  
3000000000    -39.9179800   -148.8689000  -2.5926830    -86.9601600   -2.5921070    -86.9579000   -40.6367300   -171.7884000  
3050000000    -40.4211500   -148.3752000  -2.5934630    -88.4040500   -2.5907840    -88.4068800   -40.8978000   -174.5662000  
3100000000    -40.7287600   -150.0249000  -2.5924110    -89.8570200   -2.5912950    -89.8563100   -41.0409800   -172.7339000  
3150000000    -40.5293700   -152.2440000  -2.5946480    -91.3042800   -2.5919990    -91.3042400   -41.0072600   -173.6788000  
3200000000    -40.2403700   -154.0731000  -2.5943650    -92.7542500   -2.5913910    -92.7553700   -40.8793200   -175.8603000  
3250000000    -40.4355400   -154.6755000  -2.5948260    -94.1997100   -2.5928730    -94.2000400   -40.8440600   -175.6178000  
3300000000    -40.5384000   -156.8677000  -2.5950120    -95.6480400   -2.5926510    -95.6499900   -41.1189300   -176.9763000  
3350000000    -40.2942900   -160.5775000  -2.5966340    -97.0970900   -2.5946360    -97.0948700   -41.2427200   -177.8767000  
3400000000    -40.1095200   -163.0371000  -2.5963220    -98.5436800   -2.5951360    -98.5460200   -41.0942900   -179.6475000  
3450000000    -39.2210400   -162.7467000  -2.5965280    -99.9902000   -2.5952280    -99.9950200   -41.3528700   175.8611000   
3500000000    -39.6711000   -162.6172000  -2.5968010    -101.4395000  -2.5956160    -101.4415000  -41.4153300   174.7495000   
3550000000    -39.6778800   -164.1869000  -2.5970540    -102.8880000  -2.5962280    -102.8904000  -41.7352800   176.0824000   
3600000000    -39.4750700   -167.0987000  -2.5964740    -104.3344000  -2.5960260    -104.3409000  -41.8245900   172.8970000   
3650000000    -38.7520800   -167.7427000  -2.5969040    -105.7844000  -2.5963480    -105.7839000  -42.3474900   169.3604000   
3700000000    -39.4473100   -165.6936000  -2.5972120    -107.2328000  -2.5966140    -107.2294000  -43.0825000   169.1385000   
3750000000    -39.3884700   -173.6457000  -2.5968820    -108.6821000  -2.5969250    -108.6829000  -43.1320600   170.4072000   
3800000000    -38.7971500   -171.6545000  -2.5982940    -110.1291000  -2.5976220    -110.1309000  -43.3748000   170.3843000   
3850000000    -38.7924200   -172.3137000  -2.5987640    -111.5764000  -2.5988610    -111.5810000  -43.7555000   169.8476000   
3900000000    -39.0527000   -171.9329000  -2.5986610    -113.0267000  -2.5989700    -113.0262000  -43.7338800   171.9302000   
3950000000    -39.4440900   -175.1977000  -2.5990870    -114.4749000  -2.5985730    -114.4744000  -44.2168300   174.7713000   
4000000000    -39.5263200   -177.7044000  -2.5993310    -115.9273000  -2.5993860    -115.9235000  -43.9040100   175.7753000   
4050000000    -39.5338400   -176.6912000  -2.5968660    -117.3743000  -2.5997500    -117.3751000  -44.0169200   175.1153000   
4100000000    -39.4632600   -177.4921000  -2.5987940    -118.8235000  -2.5998800    -118.8239000  -44.3450300   175.1205000   
4150000000    -39.5864300   -178.9087000  -2.5990110    -120.2715000  -2.6019350    -120.2721000  -44.1323800   176.3803000   
4200000000    -39.9648800   177.8406000   -2.6000520    -121.7182000  -2.6017410    -121.7229000  -44.0599800   177.1542000   
4250000000    -39.8430400   175.9636000   -2.6014220    -123.1671000  -2.6016770    -123.1674000  -44.0401300   175.0124000   
4300000000    -39.7260500   178.1131000   -2.6011790    -124.6178000  -2.6037630    -124.6181000  -44.0463000   175.0284000   
4350000000    -40.8078100   176.1644000   -2.6024190    -126.0681000  -2.6037010    -126.0663000  -44.3136100   179.0041000   
4400000000    -40.5562900   167.5081000   -2.6033630    -127.5163000  -2.6045950    -127.5143000  -44.0348300   178.2396000   
4450000000    -40.2036400   169.2049000   -2.6028770    -128.9660000  -2.6041450    -128.9604000  -44.2515100   175.7410000   
4500000000    -40.4909100   173.3695000   -2.6039080    -130.4140000  -2.6058040    -130.4057000  -44.6636100   175.2747000   
4550000000    -40.8117000   171.2103000   -2.6038570    -131.8620000  -2.6060720    -131.8567000  -44.4956600   177.9984000   
4600000000    -41.0024600   164.9259000   -2.6049910    -133.3139000  -2.6059640    -133.3044000  -43.9975500   179.4720000   
4650000000    -40.2562100   164.0404000   -2.6064070    -134.7619000  -2.6063180    -134.7544000  -43.8657400   175.7572000   
4700000000    -41.2232900   168.2383000   -2.6068700    -136.2058000  -2.6067580    -136.2006000  -44.2711500   176.7024000   
4750000000    -41.8377500   161.8329000   -2.6076440    -137.6544000  -2.6075860    -137.6514000  -44.4059600   179.2900000   
4800000000    -41.3611500   160.3164000   -2.6092900    -139.1056000  -2.6064970    -139.0961000  -44.0361200   176.9963000   
4850000000    -40.8786700   159.0816000   -2.6089110    -140.5546000  -2.6081820    -140.5466000  -43.9869300   174.6637000   
4900000000    -41.3493700   162.7911000   -2.6086030    -142.0041000  -2.6075270    -141.9953000  -43.9609500   173.0682000   
4950000000    -41.6717100   163.7975000   -2.6103860    -143.4534000  -2.6086850    -143.4445000  -44.2060500   173.7355000   
5000000000    -42.4633800   158.8815000   -2.6107530    -144.8974000  -2.6080080    -144.8886000  -44.3014900   176.0039000   
5050000000    -42.3349300   154.2417000   -2.6120450    -146.3461000  -2.6097500    -146.3352000  -44.1992500   174.4615000   
5100000000    -42.3285400   156.3666000   -2.6126640    -147.7914000  -2.6093730    -147.7883000  -44.5069800   172.5967000   
5150000000    -42.5259900   154.2393000   -2.6131830    -149.2414000  -2.6093390    -149.2386000  -44.8956300   172.8236000   
5200000000    -43.1679200   149.2472000   -2.6138730    -150.6922000  -2.6115810    -150.6845000  -44.6495100   175.3370000   
5250000000    -42.7900400   143.7025000   -2.6144820    -152.1416000  -2.6117380    -152.1357000  -44.4948600   172.8567000   
5300000000    -42.3560400   151.2964000   -2.6146440    -153.5909000  -2.6119170    -153.5835000  -45.0944600   169.1474000   
5350000000    -43.4158900   152.6164000   -2.6111890    -155.0378000  -2.6113800    -155.0356000  -45.6563400   172.9764000   
5400000000    -44.3077200   146.9888000   -2.6115520    -156.4827000  -2.6126300    -156.4859000  -45.3920400   177.0329000   
5450000000    -44.1320800   139.2558000   -2.6117890    -157.9353000  -2.6133650    -157.9357000  -45.3529700   176.1851000   
5500000000    -43.5158200   140.5061000   -2.6122650    -159.3856000  -2.6134700    -159.3856000  -46.0732600   173.6281000   
5550000000    -44.2036100   141.5253000   -2.6133210    -160.8373000  -2.6147610    -160.8331000  -46.3456500   176.0006000   
5600000000    -44.1873200   138.7704000   -2.6138720    -162.2843000  -2.6142770    -162.2843000  -46.4125500   177.9994000   
5650000000    -43.8180500   139.0537000   -2.6140490    -163.7335000  -2.6142830    -163.7352000  -46.8937400   175.7917000   
5700000000    -43.8435900   137.5972000   -2.6151360    -165.1826000  -2.6164250    -165.1904000  -47.1564200   176.2519000   
5750000000    -44.4207800   139.7406000   -2.6151100    -166.6320000  -2.6175020    -166.6311000  -47.2809200   179.4738000   
5800000000    -45.1122500   140.7653000   -2.6154160    -168.0757000  -2.6180270    -168.0803000  -47.4979100   -176.9083000  
5850000000    -45.8137300   134.7052000   -2.6162270    -169.5245000  -2.6177520    -169.5318000  -47.1191100   -175.8168000  
5900000000    -44.6603100   130.0177000   -2.6166540    -170.9764000  -2.6184200    -170.9746000  -47.1192400   -179.2639000  
5950000000    -44.2335100   137.4867000   -2.6170140    -172.4280000  -2.6185040    -172.4304000  -47.7221100   -176.2899000  
6000000000    -45.3987600   139.6786000   -2.6172490    -173.8753000  -2.6196010    -173.8776000  -47.6011200   -168.4719000  
6050000000    -45.8848000   133.8123000   -2.6173410    -175.3233000  -2.6188750    -175.3273000  -47.1026200   -168.8394000  
6100000000    -45.0971000   133.5827000   -2.6192640    -176.7768000  -2.6204370    -176.7773000  -47.1935600   -170.0379000  
6150000000    -45.5728100   145.0742000   -2.6188040    -178.2249000  -2.6213370    -178.2272000  -47.1969400   -162.6941000  
6200000000    -47.8165600   148.1924000   -2.6206480    -179.6721000  -2.6219070    -179.6766000  -46.3967600   -158.2910000  
6250000000    -47.3153100   133.5553000   -2.6206220    178.8768000   -2.6229990    178.8736000   -46.3853300   -161.6075000  
6300000000    -46.0922000   139.8653000   -2.6213210    177.4245000   -2.6235680    177.4235000   -46.7240200   -161.5771000  
6350000000    -47.0064200   150.2939000   -2.6220870    175.9753000   -2.6237680    175.9709000   -46.0693700   -154.0698000  
6400000000    -47.9447200   151.4053000   -2.6224220    174.5269000   -2.6242200    174.5254000   -45.7684100   -151.5941000  
6450000000    -47.6250000   148.5384000   -2.6239870    173.0790000   -2.6248140    173.0737000   -45.8301500   -151.5062000  
6500000000    -48.0535800   150.9654000   -2.6246600    171.6261000   -2.6254550    171.6264000   -45.6210300   -151.2441000  
6550000000    -48.0075300   152.8612000   -2.6255840    170.1765000   -2.6257820    170.1747000   -45.3061200   -150.9191000  
6600000000    -47.0296900   161.7232000   -2.6255450    168.7238000   -2.6268160    168.7290000   -45.1441300   -145.5487000  
6650000000    -47.6554100   167.9260000   -2.6260340    167.2751000   -2.6278140    167.2779000   -44.9523900   -144.6715000  
6700000000    -48.4516300   168.0650000   -2.6280710    165.8290000   -2.6276670    165.8277000   -44.6842400   -146.3013000  
6750000000    -47.8024000   165.3803000   -2.6279750    164.3769000   -2.6283210    164.3771000   -44.9399100   -143.6323000  
6800000000    -46.7920300   176.2431000   -2.6295980    162.9305000   -2.6283360    162.9275000   -44.5765200   -142.7277000  
6850000000    -48.9299700   -176.3261000  -2.6303680    161.4789000   -2.6289590    161.4754000   -43.8097100   -145.3759000  
6900000000    -48.8903100   173.5765000   -2.6316990    160.0262000   -2.6297580    160.0238000   -43.8141500   -146.5863000  
6950000000    -47.3567000   178.6091000   -2.6313970    158.5734000   -2.6304770    158.5740000   -43.6881900   -143.6136000  
7000000000    -46.5460400   -174.6575000  -2.6317420    157.1275000   -2.6303220    157.1274000   -43.3618700   -141.5906000  
7050000000    -47.3640100   -165.3822000  -2.6325450    155.6749000   -2.6313070    155.6742000   -42.9368900   -143.9328000  
7100000000    -48.3863200   -163.8421000  -2.6330800    154.2229000   -2.6332840    154.2257000   -42.7026500   -144.0854000  
7150000000    -47.6595000   -164.0733000  -2.6329860    152.7730000   -2.6342740    152.7763000   -42.7597000   -142.1465000  
7200000000    -47.6485500   -170.3008000  -2.6341370    151.3227000   -2.6340280    151.3261000   -42.5429400   -140.9188000  
7250000000    -46.9557800   -165.5037000  -2.6353760    149.8710000   -2.6341790    149.8755000   -42.2441800   -141.4616000  
7300000000    -47.4706700   -157.0199000  -2.6355400    148.4213000   -2.6348350    148.4237000   -41.9498000   -142.4243000  
7350000000    -47.5874400   -161.7249000  -2.6359900    146.9717000   -2.6354950    146.9714000   -42.0111700   -141.8023000  
7400000000    -47.3160400   -157.6697000  -2.6357820    145.5238000   -2.6363480    145.5210000   -41.9054400   -141.0805000  
7450000000    -47.2030000   -148.9699000  -2.6366840    144.0709000   -2.6368110    144.0733000   -41.5760900   -143.2552000  
7500000000    -48.5862300   -144.5058000  -2.6367810    142.6170000   -2.6382880    142.6205000   -41.5892900   -144.8396000  
7550000000    -49.7353400   -147.8484000  -2.6377960    141.1642000   -2.6385020    141.1712000   -41.5419800   -144.9276000  
7600000000    -48.2711100   -148.5410000  -2.6376340    139.7162000   -2.6390140    139.7190000   -41.1188800   -144.6464000  
7650000000    -47.7366500   -142.3785000  -2.6376800    138.2630000   -2.6401670    138.2674000   -40.6096200   -144.6040000  
7700000000    -48.5870300   -135.1029000  -2.6390930    136.8117000   -2.6407730    136.8211000   -40.5579800   -146.4747000  
7750000000    -50.4245300   -141.7079000  -2.6389340    135.3597000   -2.6412160    135.3643000   -40.7261900   -147.0164000  
7800000000    -49.4336900   -143.3757000  -2.6410940    133.9108000   -2.6416310    133.9168000   -40.7018100   -147.2308000  
7850000000    -49.9145500   -142.5869000  -2.6414460    132.4605000   -2.6414860    132.4612000   -40.4734500   -147.8546000  
7900000000    -50.1150100   -134.8651000  -2.6418830    131.0080000   -2.6423470    131.0154000   -40.3854200   -149.3342000  
7950000000    -51.0203400   -138.1544000  -2.6428930    129.5574000   -2.6435160    129.5655000   -40.1789400   -150.2717000  
8000000000    -52.0606200   -134.7292000  -2.6438910    128.1013000   -2.6445780    128.1114000   -40.0923400   -150.9798000  
8050000000    -52.8909600   -128.8537000  -2.6440140    126.6525000   -2.6450870    126.6607000   -39.9745700   -153.0849000  
8100000000    -54.5279800   -136.9001000  -2.6455930    125.2027000   -2.6450460    125.2085000   -39.9255400   -153.8658000  
8150000000    -55.0480200   -138.3953000  -2.6465040    123.7492000   -2.6463360    123.7613000   -40.0600100   -154.7170000  
8200000000    -55.3688000   -163.5057000  -2.6465290    122.2950000   -2.6474860    122.3054000   -39.9201000   -154.8146000  
8250000000    -53.4470700   -158.5847000  -2.6474230    120.8472000   -2.6479830    120.8589000   -39.8117800   -154.1913000  
8300000000    -52.7590800   -149.5223000  -2.6481710    119.3990000   -2.6479200    119.4086000   -39.5109300   -157.1358000  
8350000000    -56.1300200   -134.0430000  -2.6504410    117.9430000   -2.6492270    117.9562000   -39.5355500   -158.2632000  
8400000000    -58.7332500   -179.6301000  -2.6500300    116.4940000   -2.6498220    116.5029000   -39.6036800   -158.2374000  
8450000000    -54.1010500   173.1441000   -2.6509610    115.0400000   -2.6507870    115.0526000   -39.2421800   -158.2039000  
8500000000    -54.8458400   164.8697000   -2.6527110    113.5845000   -2.6516070    113.5995000   -39.2307900   -158.8872000  
8550000000    -53.5862600   157.3474000   -2.6531620    112.1353000   -2.6518930    112.1523000   -39.3240200   -159.8791000  
8600000000    -54.6520200   143.2892000   -2.6536670    110.6833000   -2.6516710    110.6973000   -39.2724500   -159.6626000  
8650000000    -52.9515800   147.8428000   -2.6543960    109.2331000   -2.6536070    109.2460000   -39.3058600   -162.4020000  
8700000000    -56.0490600   138.9356000   -2.6557930    107.7788000   -2.6541280    107.7945000   -39.2404100   -163.1544000  
8750000000    -52.5320500   136.9751000   -2.6563770    106.3284000   -2.6549760    106.3438000   -39.3751700   -163.1023000  
8800000000    -52.9920100   127.8124000   -2.6573340    104.8773000   -2.6556400    104.8893000   -39.1916200   -164.3875000  
8850000000    -48.9797600   123.9663000   -2.6578150    103.4234000   -2.6568560    103.4401000   -39.1074400   -163.6592000  
8900000000    -47.7290600   133.0788000   -2.6584830    101.9730000   -2.6572930    101.9884000   -38.8246500   -165.4445000  
8950000000    -48.9016700   133.8288000   -2.6590960    100.5197000   -2.6584510    100.5358000   -38.7542300   -166.8545000  
9000000000    -48.5410100   123.1959000   -2.6587320    99.0688600    -2.6595250    99.0797000    -39.0122400   -166.6227000  
9050000000    -46.8736300   121.4948000   -2.6598990    97.6138200    -2.6594220    97.6310600    -38.7552000   -166.3964000  
9100000000    -47.0186000   132.6279000   -2.6604070    96.1596100    -2.6617290    96.1770500    -38.7953200   -168.1724000  
9150000000    -48.3128400   117.0094000   -2.6615820    94.7105500    -2.6614470    94.7238900    -38.9311500   -169.3741000  
9200000000    -46.1304900   119.2866000   -2.6626000    93.2522400    -2.6618900    93.2714600    -38.9405900   -168.4933000  
9250000000    -46.5457500   123.8997000   -2.6632540    91.8027100    -2.6624670    91.8158900    -38.8375500   -169.4159000  
9300000000    -46.6492800   122.3056000   -2.6635200    90.3523500    -2.6632060    90.3629800    -38.8642400   -170.2508000  
9350000000    -46.4992300   124.5549000   -2.6650060    88.8949600    -2.6638650    88.9082300    -39.0519000   -170.9954000  
9400000000    -45.6888500   122.3133000   -2.6638130    87.4439000    -2.6654130    87.4561800    -38.9240700   -173.7601000  
9450000000    -45.6927500   129.6710000   -2.6657400    85.9921600    -2.6668290    86.0026000    -38.9831100   -175.6436000  
9500000000    -45.4459200   120.8160000   -2.6655850    84.5402300    -2.6673330    84.5484700    -38.8475200   -175.1280000  
9550000000    -45.7599900   130.8051000   -2.6659660    83.0850900    -2.6678890    83.0922700    -38.6989400   -175.3099000  
9600000000    -47.0539100   123.4844000   -2.6670630    81.6341900    -2.6687620    81.6406700    -38.9549300   -176.3168000  
9650000000    -46.5442900   119.7788000   -2.6673720    80.1762100    -2.6688910    80.1872700    -39.1239700   -175.3625000  
9700000000    -45.5323800   122.7458000   -2.6684300    78.7251000    -2.6706200    78.7262300    -38.9615200   -176.5840000  
9750000000    -45.7892300   129.3855000   -2.6685640    77.2683900    -2.6710140    77.2774400    -39.1421400   -178.2602000  
9800000000    -47.7282200   120.7591000   -2.6693240    75.8158900    -2.6717870    75.8250000    -39.2594200   -177.4758000  
9850000000    -45.0699700   115.0518000   -2.6696130    74.3696700    -2.6726300    74.3686700    -38.9973000   -175.4695000  
9900000000    -45.7462900   121.4230000   -2.6711290    72.9099700    -2.6736890    72.9106800    -38.9496800   -176.7035000  
9950000000    -46.4034900   119.6676000   -2.6713700    71.4599200    -2.6746630    71.4639700    -39.0938700   -177.6678000  
10000000000   -47.1042000   118.7845000   -2.6725950    70.0073100    -2.6749050    70.0083500    -39.1465800   -176.5475000  
10050000000   -47.2157100   121.1747000   -2.6747570    68.5523800    -2.6759540    68.5530500    -39.2967000   -178.3233000  
10100000000   -49.8899500   127.7187000   -2.6748520    67.0967100    -2.6769110    67.1051300    -39.4550900   -179.0458000  
10150000000   -48.9055700   108.9499000   -2.6755450    65.6457500    -2.6774620    65.6482800    -39.2414900   -178.6068000  
10200000000   -46.9552900   106.8149000   -2.6771910    64.1901600    -2.6780150    64.1959200    -38.9137900   -178.6217000  
10250000000   -48.9934700   106.8398000   -2.6777440    62.7335400    -2.6781500    62.7477600    -39.0528000   -177.0546000  
10300000000   -48.8652600   100.9767000   -2.6774970    61.2790600    -2.6785100    61.2928200    -39.2220500   -176.9769000  
10350000000   -49.5311300   100.8903000   -2.6790630    59.8258400    -2.6800400    59.8389100    -39.1019100   -177.5674000  
10400000000   -51.4485800   104.0020000   -2.6806330    58.3711900    -2.6806510    58.3864600    -39.2077300   -178.9158000  
10450000000   -52.2993000   73.2252600    -2.6821290    56.9184900    -2.6813320    56.9263200    -39.2988100   -178.9962000  
10500000000   -49.4930200   70.0956600    -2.6831840    55.4662100    -2.6826910    55.4758300    -39.0429600   -178.1602000  
10550000000   -49.3815500   79.6129500    -2.6849830    54.0124800    -2.6841150    54.0208300    -38.7361500   -178.8936000  
10600000000   -50.9730000   80.3637600    -2.6850870    52.5508300    -2.6842070    52.5614700    -38.8544200   -178.9158000  
10650000000   -52.8132500   59.4719500    -2.6856620    51.0981100    -2.6851900    51.1139800    -39.0512000   -178.8048000  
10700000000   -53.6198000   40.6862100    -2.6859730    49.6455700    -2.6863930    49.6584700    -39.0150400   179.9697000   
10750000000   -53.6427300   30.9129400    -2.6873280    48.1879300    -2.6869260    48.2022600    -39.0574800   179.6544000   
10800000000   -49.7101400   15.5644000    -2.6886980    46.7381000    -2.6872580    46.7451800    -39.1432600   179.8904000   
10850000000   -48.4934800   22.8519700    -2.6895660    45.2773900    -2.6879290    45.2935200    -38.8103600   -179.7108000  
10900000000   -48.4737800   24.9446000    -2.6911760    43.8265600    -2.6887470    43.8355300    -38.6445800   179.8357000   
10950000000   -49.8461600   5.8818250     -2.6921670    42.3690100    -2.6896020    42.3790400    -38.9278700   -179.7433000  
11000000000   -46.9011700   2.5171430     -2.6921610    40.9163600    -2.6905560    40.9239800    -38.8978700   -179.0350000  
11050000000   -46.5108300   1.3185490     -2.6938580    39.4604600    -2.6922370    39.4684400    -38.9204700   -178.8078000  
11100000000   -45.3177600   -9.7151260    -2.6946770    38.0035900    -2.6937660    38.0142200    -39.1024200   -179.2924000  
11150000000   -43.4917200   -7.9768370    -2.6958290    36.5505900    -2.6945390    36.5587200    -39.0335200   -178.0512000  
11200000000   -43.4689100   -7.4727500    -2.6976320    35.0916600    -2.6959810    35.1062700    -39.0544000   -178.9562000  
11250000000   -43.3299700   -7.4007680    -2.6972870    33.6393200    -2.6966540    33.6512900    -38.9575400   -179.9236000  
11300000000   -42.8063100   -14.2799500   -2.6980860    32.1816900    -2.6967690    32.1961100    -39.1395400   -177.6716000  
11350000000   -42.5782100   -14.6110400   -2.6986000    30.7244100    -2.6982950    30.7391400    -39.1779000   -178.3862000  
11400000000   -42.3657800   -21.7617300   -2.6981560    29.2685200    -2.6995050    29.2817800    -39.1769400   -178.2119000  
11450000000   -41.1984600   -22.5965800   -2.6997080    27.8106900    -2.6999190    27.8206100    -39.1400600   -176.9240000  
11500000000   -40.4923800   -18.3580200   -2.6994270    26.3600900    -2.7008320    26.3649700    -38.7983400   -177.1674000  
11550000000   -40.7450900   -19.1344700   -2.7017370    24.9030600    -2.7023230    24.9094700    -38.9367100   -177.4799000  
11600000000   -40.5702600   -23.1544200   -2.7015500    23.4480100    -2.7031200    23.4484500    -39.1738200   -177.0801000  
11650000000   -39.9434300   -22.7571600   -2.7024060    21.9908200    -2.7042340    21.9955100    -38.8981600   -176.8249000  
11700000000   -40.4826000   -23.1914000   -2.7044370    20.5329600    -2.7052510    20.5380500    -38.7458300   -177.0245000  
11750000000   -39.7324400   -31.4891000   -2.7040420    19.0706200    -2.7059680    19.0810400    -38.8686100   -174.4968000  
11800000000   -39.2246000   -30.8058900   -2.7052650    17.6192300    -2.7073050    17.6249600    -38.7661100   -175.0718000  
11850000000   -39.2950900   -29.9311500   -2.7064080    16.1620100    -2.7089410    16.1655700    -38.5740800   -176.5744000  
11900000000   -39.2807800   -34.1670200   -2.7081800    14.7019100    -2.7099660    14.7083100    -38.6539100   -175.9099000  
11950000000   -38.6097500   -36.6824300   -2.7083290    13.2474900    -2.7103950    13.2520100    -38.5201800   -174.5324000  
12000000000   -38.4671800   -35.4091800   -2.7108230    11.7869700    -2.7124940    11.7931100    -38.4178600   -173.9430000  
12050000000   -38.4978200   -37.8173200   -2.7111030    10.3324900    -2.7121360    10.3379500    -38.3133700   -174.7240000  
12100000000   -38.2186200   -38.7661700   -2.7122740    8.8665700     -2.7137760    8.8806350     -37.9629200   -173.8061000  
12150000000   -38.0752500   -42.0544600   -2.7138040    7.4226910     -2.7160860    7.4274260     -37.9990400   -173.9769000  
12200000000   -37.9040400   -43.7131800   -2.7150330    5.9617920     -2.7179460    5.9678210     -37.8331600   -174.3958000  
12250000000   -37.3693500   -46.9272800   -2.7161190    4.5079390     -2.7184290    4.5096510     -37.7232700   -172.7626000  
12300000000   -36.9705100   -46.7729300   -2.7171170    3.0507090     -2.7187230    3.0505350     -37.6483100   -173.5551000  
12350000000   -37.3642800   -47.9084400   -2.7190900    1.5894200     -2.7199290    1.5926680     -37.5474200   -173.8634000  
12400000000   -36.7617000   -52.6427900   -2.7193580    0.1332835     -2.7214960    0.1321524     -37.4401600   -172.3932000  
12450000000   -36.2990800   -52.0824400   -2.7217390    -1.3279370    -2.7223240    -1.3200370    -37.1556700   -172.4297000  
12500000000   -36.5291000   -54.3459700   -2.7222910    -2.7825910    -2.7233150    -2.7787860    -37.1853900   -172.9902000  
12550000000   -36.3290600   -57.7396000   -2.7236220    -4.2337680    -2.7248440    -4.2361530    -37.2070600   -173.4954000  
12600000000   -35.6398600   -60.7972100   -2.7249510    -5.6985650    -2.7260660    -5.6975020    -37.0201600   -173.1354000  
12650000000   -35.2658200   -60.0404100   -2.7256130    -7.1535980    -2.7278900    -7.1588970    -36.8868900   -173.8141000  
12700000000   -35.2147800   -60.2435100   -2.7289720    -8.6133110    -2.7282620    -8.6137240    -36.7257100   -175.6725000  
12750000000   -35.2701500   -61.0087200   -2.7293380    -10.0751700   -2.7294610    -10.0768000   -36.5608600   -176.5266000  
12800000000   -35.0609000   -64.5767400   -2.7309400    -11.5351200   -2.7299890    -11.5276700   -36.4438100   -175.8833000  
12850000000   -34.7546400   -66.2659000   -2.7315910    -12.9936300   -2.7308270    -12.9876800   -36.3549300   -176.0851000  
12900000000   -34.6642500   -66.8531600   -2.7322400    -14.4521200   -2.7316470    -14.4471800   -36.2209700   -177.4819000  
12950000000   -34.3500100   -68.1062200   -2.7329270    -15.9076900   -2.7331780    -15.9083900   -36.0458100   -177.9935000  
13000000000   -34.1823500   -70.4407400   -2.7342190    -17.3641400   -2.7343430    -17.3683100   -36.0265900   -178.3468000  
13050000000   -33.8057400   -71.4295300   -2.7360230    -18.8283800   -2.7361770    -18.8273000   -35.9049100   -179.9450000  
13100000000   -33.7021800   -70.8577000   -2.7363600    -20.2883600   -2.7372090    -20.2815300   -35.6465600   178.5118000   
13150000000   -33.7466800   -73.3631400   -2.7376260    -21.7430100   -2.7380500    -21.7398500   -35.6442700   178.4208000   
13200000000   -33.4435000   -76.6986500   -2.7388160    -23.2059200   -2.7391490    -23.2035600   -35.5406500   178.3356000   
13250000000   -33.4024600   -75.8408400   -2.7394920    -24.6675900   -2.7406950    -24.6580900   -35.3524200   177.3114000   
13300000000   -33.1967500   -76.7652500   -2.7410970    -26.1275400   -2.7428360    -26.1215600   -35.1453600   176.1369000   
13350000000   -33.1207100   -77.3393300   -2.7419440    -27.5858800   -2.7420280    -27.5835900   -35.0156000   175.4024000   
13400000000   -33.3371200   -78.9274300   -2.7417540    -29.0422400   -2.7438210    -29.0439000   -35.2280900   173.9825000   
13450000000   -32.8515100   -81.7471900   -2.7434760    -30.5035200   -2.7446480    -30.4981000   -35.0151100   173.0757000   
13500000000   -32.4349400   -81.2221700   -2.7452900    -31.9659800   -2.7468840    -31.9661800   -34.7910200   172.9494000   
13550000000   -32.5943300   -81.6522700   -2.7463560    -33.4295700   -2.7474520    -33.4243100   -34.7759800   171.4483000   
13600000000   -32.8125100   -83.0633800   -2.7471360    -34.8846700   -2.7485490    -34.8844900   -34.6811400   171.3552000   
13650000000   -32.3623800   -86.7685900   -2.7479350    -36.3487500   -2.7507000    -36.3410300   -34.5933700   171.4389000   
13700000000   -32.2856800   -85.0978700   -2.7498970    -37.8093900   -2.7513430    -37.8038100   -34.3585200   169.9820000   
13750000000   -32.4928600   -86.3728700   -2.7510700    -39.2549000   -2.7527340    -39.2739100   -34.4485100   169.4570000   
13800000000   -32.3483500   -90.0313800   -2.7511870    -40.7279100   -2.7534020    -40.7228700   -34.5329000   169.0888000   
13850000000   -32.0943900   -89.5921100   -2.7531010    -42.1780300   -2.7549260    -42.1831800   -34.3522700   167.6494000   
13900000000   -31.9132600   -88.8953100   -2.7540380    -43.6490000   -2.7567270    -43.6480000   -34.2342900   165.2666000   
13950000000   -32.2932800   -90.1549300   -2.7559800    -45.1083000   -2.7577800    -45.1169400   -34.1280200   165.2633000   
14000000000   -31.9362200   -91.8001500   -2.7565790    -46.5721700   -2.7582200    -46.5721700   -34.1394500   164.9341000   
14050000000   -32.3252900   -93.9951000   -2.7591890    -48.0357000   -2.7607740    -48.0266200   -34.0225900   163.4379000   
14100000000   -32.1266900   -95.1161500   -2.7583270    -49.4864200   -2.7617990    -49.4950500   -33.8907400   163.0387000   
14150000000   -32.1439500   -96.1692700   -2.7615190    -50.9513900   -2.7619230    -50.9537400   -33.8043600   162.5230000   
14200000000   -32.2007600   -96.9613600   -2.7616330    -52.4026000   -2.7621830    -52.4149600   -33.8568200   161.8292000   
14250000000   -32.0954600   -97.5603500   -2.7633350    -53.8778700   -2.7640970    -53.8692900   -33.9278100   159.0656000   
14300000000   -32.1555800   -99.7996700   -2.7665540    -55.3337300   -2.7666960    -55.3329700   -33.5622600   158.5611000   
14350000000   -31.7992400   -99.1035300   -2.7653580    -56.8107700   -2.7674620    -56.7935300   -33.6117900   157.9187000   
14400000000   -32.3162300   -102.2950000  -2.7680720    -58.2589600   -2.7698780    -58.2554100   -33.6154600   156.2956000   
14450000000   -32.1281100   -104.1744000  -2.7672460    -59.7213600   -2.7701280    -59.7229500   -33.4142400   155.6664000   
14500000000   -32.1537200   -106.5585000  -2.7715430    -61.1829000   -2.7716050    -61.1794600   -33.1741000   154.3066000   
14550000000   -32.2279600   -107.9080000  -2.7707280    -62.6422300   -2.7725060    -62.6396800   -33.1129800   153.7781000   
14600000000   -32.3905400   -109.0752000  -2.7733800    -64.1123000   -2.7742160    -64.1011300   -33.3078500   152.3311000   
14650000000   -32.4388700   -111.9702000  -2.7741580    -65.5637800   -2.7761330    -65.5666400   -33.1378700   150.7940000   
14700000000   -32.1333100   -111.8778000  -2.7761880    -67.0446900   -2.7776270    -67.0286700   -33.0341400   150.4225000   
14750000000   -31.9924100   -114.0138000  -2.7781280    -68.4890900   -2.7781800    -68.4931400   -32.9674400   148.3466000   
14800000000   -32.5080800   -113.3508000  -2.7772590    -69.9634900   -2.7787260    -69.9555900   -33.0428400   147.1474000   
14850000000   -32.4677000   -118.8211000  -2.7800460    -71.4201400   -2.7811710    -71.4211000   -33.0806900   146.1401000   
14900000000   -32.4922600   -120.4715000  -2.7802740    -72.8835400   -2.7816250    -72.8825000   -33.0175900   144.9105000   
14950000000   -32.3391400   -124.0797000  -2.7829180    -74.3487100   -2.7839870    -74.3441500   -33.0732200   143.5177000   
15000000000   -32.1637400   -125.2625000  -2.7835120    -75.8092200   -2.7849790    -75.8037800   -32.9093600   141.7476000   
15050000000   -32.2060900   -124.9063000  -2.7850590    -77.2796200   -2.7859930    -77.2658200   -32.9297100   140.7644000   
15100000000   -31.9643500   -128.3065000  -2.7855010    -78.7381400   -2.7873780    -78.7296100   -32.9586400   139.9478000   
15150000000   -32.1135600   -128.5668000  -2.7877400    -80.1988400   -2.7880260    -80.1931200   -33.0354700   139.3631000   
15200000000   -31.9242900   -130.3145000  -2.7879480    -81.6617600   -2.7896630    -81.6592000   -33.1467400   136.8607000   
15250000000   -32.3929300   -133.9864000  -2.7906000    -83.1272100   -2.7907490    -83.1233800   -33.1965800   136.2268000   
15300000000   -31.7418000   -138.6059000  -2.7927370    -84.5910500   -2.7927380    -84.5781500   -33.2523800   135.3245000   
15350000000   -31.4378600   -137.7507000  -2.7938410    -86.0554400   -2.7948330    -86.0440600   -33.0585300   132.5529000   
15400000000   -31.5500400   -136.9802000  -2.7954460    -87.5196300   -2.7957200    -87.5103100   -33.0898900   130.6084000   
15450000000   -31.7282000   -139.3228000  -2.7957400    -88.9822500   -2.7973290    -88.9780300   -33.1859600   130.2614000   
15500000000   -31.3714800   -141.8164000  -2.7975660    -90.4472400   -2.7984130    -90.4446300   -33.1863300   130.4876000   
15550000000   -31.3297500   -139.9844000  -2.7993350    -91.9199400   -2.7991500    -91.9057700   -33.3150700   128.2347000   
15600000000   -31.6384900   -142.2152000  -2.8012030    -93.3789400   -2.8005790    -93.3711400   -33.4231300   127.4993000   
15650000000   -31.3589900   -143.4908000  -2.8015920    -94.8457200   -2.8017830    -94.8376900   -33.6387000   126.6765000   
15700000000   -31.5119500   -144.6210000  -2.8028570    -96.3084000   -2.8027780    -96.2943300   -33.7520500   124.4369000   
15750000000   -31.6031000   -146.4190000  -2.8037970    -97.7717100   -2.8044380    -97.7623400   -33.9833200   123.0792000   
15800000000   -31.6620100   -148.5379000  -2.8046630    -99.2374500   -2.8059290    -99.2312000   -34.0273900   122.3387000   
15850000000   -31.5388300   -147.1860000  -2.8064810    -100.7074000  -2.8070890    -100.7012000  -34.1757700   120.8139000   
15900000000   -31.8495000   -147.8400000  -2.8072430    -102.1784000  -2.8079540    -102.1621000  -34.3132000   118.5178000   
15950000000   -31.4229100   -150.6986000  -2.8085230    -103.6414000  -2.8095710    -103.6299000  -34.2391100   118.2412000   
16000000000   -31.3181300   -149.8804000  -2.8108590    -105.1044000  -2.8119620    -105.0938000  -34.4133600   117.2782000   
16050000000   -31.5735600   -151.6663000  -2.8122070    -106.5688000  -2.8133850    -106.5593000  -34.5995500   116.0351000   
16100000000   -31.7280300   -152.8069000  -2.8147030    -108.0343000  -2.8152380    -108.0239000  -34.9318600   117.1854000   
16150000000   -31.6973100   -156.3002000  -2.8148990    -109.5144000  -2.8157390    -109.4902000  -35.1947600   116.1386000   
16200000000   -31.6182800   -155.3751000  -2.8166160    -110.9743000  -2.8181720    -110.9674000  -35.3413200   114.3382000   
16250000000   -31.6660500   -156.5804000  -2.8186380    -112.4431000  -2.8190070    -112.4333000  -35.5080800   112.1796000   
16300000000   -31.8732800   -157.4412000  -2.8200800    -113.9077000  -2.8208030    -113.8948000  -35.5716400   111.5851000   
16350000000   -31.6767600   -159.3570000  -2.8228070    -115.3728000  -2.8231870    -115.3627000  -35.7132400   111.3780000   
16400000000   -31.6082900   -159.1866000  -2.8242960    -116.8407000  -2.8223750    -116.8303000  -35.6626800   109.5313000   
16450000000   -31.9289300   -158.0208000  -2.8237170    -118.3027000  -2.8247350    -118.2993000  -35.9467300   108.6516000   
16500000000   -32.1765900   -159.6466000  -2.8263380    -119.7835000  -2.8256760    -119.7615000  -36.1503100   107.9416000   
16550000000   -32.4455100   -161.5834000  -2.8269720    -121.2503000  -2.8275610    -121.2366000  -36.3689500   108.6351000   
16600000000   -32.2914000   -163.7396000  -2.8290570    -122.7168000  -2.8287870    -122.7000000  -36.3468500   107.2200000   
16650000000   -32.6954500   -163.9214000  -2.8315670    -124.1882000  -2.8310650    -124.1717000  -36.4416800   108.3962000   
16700000000   -32.4441700   -166.7332000  -2.8317860    -125.6531000  -2.8330640    -125.6369000  -36.7129400   109.3498000   
16750000000   -32.7277600   -166.1195000  -2.8341020    -127.1218000  -2.8341100    -127.1099000  -36.9073800   107.9687000   
16800000000   -32.8910700   -166.9987000  -2.8357060    -128.5917000  -2.8359610    -128.5743000  -37.1484000   108.1598000   
16850000000   -32.8651400   -167.1386000  -2.8370330    -130.0656000  -2.8366320    -130.0425000  -37.2014800   106.5752000   
16900000000   -33.3351800   -167.4403000  -2.8387890    -131.5350000  -2.8380340    -131.5163000  -37.3551900   106.2862000   
16950000000   -33.4081700   -169.9963000  -2.8397580    -133.0081000  -2.8391110    -132.9788000  -37.4115200   106.7642000   
17000000000   -33.5355200   -173.1685000  -2.8425460    -134.4681000  -2.8411830    -134.4547000  -37.2779000   107.8838000   
17050000000   -33.4509000   -172.6820000  -2.8442150    -135.9409000  -2.8430000    -135.9250000  -37.6522300   107.0707000   
17100000000   -34.1105100   -173.8023000  -2.8448330    -137.4097000  -2.8444510    -137.3964000  -37.9539000   106.2288000   
17150000000   -34.1015400   -176.9275000  -2.8459500    -138.8831000  -2.8452290    -138.8605000  -37.8022700   107.4787000   
17200000000   -34.1027700   -178.7000000  -2.8480200    -140.3521000  -2.8469250    -140.3284000  -37.8737000   107.4239000   
17250000000   -34.6902700   -176.8370000  -2.8502930    -141.8208000  -2.8498400    -141.8086000  -38.5228300   106.3799000   
17300000000   -35.4088200   -179.6002000  -2.8507160    -143.2969000  -2.8502330    -143.2802000  -38.7963500   104.9998000   
17350000000   -35.3509300   176.0546000   -2.8524890    -144.7636000  -2.8521130    -144.7471000  -38.5703700   105.7234000   
17400000000   -35.6895800   176.1235000   -2.8523240    -146.2420000  -2.8536490    -146.2237000  -38.8856800   105.3431000   
17450000000   -35.8964200   170.8109000   -2.8550170    -147.7004000  -2.8547130    -147.7000000  -39.0587600   105.6133000   
17500000000   -35.7915700   171.1937000   -2.8560910    -149.1807000  -2.8569320    -149.1627000  -39.1904600   104.4442000   
17550000000   -35.8473100   167.6464000   -2.8585290    -150.6516000  -2.8588910    -150.6321000  -39.3083300   104.0299000   
17600000000   -36.1428700   165.9920000   -2.8601830    -152.1189000  -2.8607410    -152.1048000  -39.7482900   105.0514000   
17650000000   -35.9832600   165.1270000   -2.8618080    -153.5914000  -2.8621270    -153.5795000  -39.9690900   100.4391000   
17700000000   -36.0921800   164.3873000   -2.8629580    -155.0651000  -2.8638470    -155.0523000  -39.7829400   100.4963000   
17750000000   -36.8373200   159.3749000   -2.8636470    -156.5392000  -2.8652570    -156.5256000  -40.1970100   104.7184000   
17800000000   -36.2740100   156.0403000   -2.8645780    -158.0111000  -2.8668220    -157.9914000  -40.4841100   104.3940000   
17850000000   -36.0228600   157.7662000   -2.8670640    -159.4781000  -2.8697940    -159.4635000  -40.7900000   100.2214000   
17900000000   -36.0915700   157.1496000   -2.8686850    -160.9577000  -2.8699650    -160.9446000  -40.9676700   98.6810200    
17950000000   -36.7886700   154.5179000   -2.8694650    -162.4279000  -2.8719250    -162.4099000  -41.4006700   102.6352000   
18000000000   -36.3470600   151.6197000   -2.8719980    -163.9052000  -2.8731660    -163.8862000  -41.8797000   99.4792900    
18050000000   -36.0606800   151.8140000   -2.8737450    -165.3711000  -2.8757200    -165.3483000  -41.7618100   97.1736500    
18100000000   -36.4016400   153.0470000   -2.8768300    -166.8439000  -2.8779860    -166.8347000  -42.3601100   98.7925500    
18150000000   -36.5849700   150.5625000   -2.8775640    -168.3241000  -2.8789920    -168.3003000  -42.7313400   98.9296200    
18200000000   -36.4442700   150.9256000   -2.8782630    -169.7966000  -2.8804110    -169.7794000  -43.2361600   96.5652100    
18250000000   -36.6280300   150.0529000   -2.8808940    -171.2708000  -2.8828100    -171.2521000  -43.1946200   95.8368500    
18300000000   -36.5334900   145.8341000   -2.8824290    -172.7405000  -2.8847520    -172.7254000  -43.3002100   99.7157500    
18350000000   -36.3739200   150.0787000   -2.8837070    -174.2172000  -2.8857470    -174.1987000  -44.5533600   96.3868100    
18400000000   -36.5705100   147.9664000   -2.8867270    -175.6966000  -2.8879330    -175.6723000  -44.5032900   94.7890000    
18450000000   -36.4571600   149.4726000   -2.8870880    -177.1656000  -2.8904440    -177.1548000  -44.7935200   97.2807600    
18500000000   -36.5386400   151.1960000   -2.8899780    -178.6491000  -2.8916450    -178.6253000  -45.7710800   93.8340800    
18550000000   -36.7181300   154.9200000   -2.8911160    179.8888000   -2.8925590    179.9012000   -46.4215600   93.9935300    
18600000000   -37.6409300   155.5142000   -2.8927820    178.4001000   -2.8937430    178.4251000   -46.9608100   96.4088100    
18650000000   -37.7871900   151.0951000   -2.8945130    176.9316000   -2.8962920    176.9433000   -46.7412100   104.4976000   
18700000000   -38.0174800   152.4329000   -2.8959150    175.4479000   -2.8973360    175.4626000   -47.9034700   107.4335000   
18750000000   -37.6360500   152.3853000   -2.9000120    173.9750000   -2.8999260    173.9974000   -48.5716100   103.6599000   
18800000000   -38.0108800   154.8184000   -2.8989740    172.4958000   -2.9022690    172.5161000   -48.5085600   106.3581000   
18850000000   -38.1728200   155.6132000   -2.9023160    171.0233000   -2.9041510    171.0429000   -49.5657900   107.2331000   
18900000000   -38.5942000   160.3583000   -2.9039210    169.5470000   -2.9051210    169.5691000   -49.9258400   107.1695000   
18950000000   -39.8635800   158.4306000   -2.9063540    168.0571000   -2.9063000    168.0876000   -49.0077100   113.5068000   
19000000000   -39.9841400   158.7373000   -2.9077220    166.5854000   -2.9093100    166.6071000   -48.8106700   124.8787000   
19050000000   -40.6523600   161.7147000   -2.9094820    165.0977000   -2.9112530    165.1300000   -50.6034400   131.0776000   
19100000000   -40.8159400   162.3544000   -2.9119200    163.6295000   -2.9131530    163.6498000   -50.7518400   133.0118000   
19150000000   -41.6549900   166.6918000   -2.9128520    162.1365000   -2.9153240    162.1666000   -49.9351500   136.1993000   
19200000000   -41.8315900   169.7844000   -2.9162810    160.6687000   -2.9162140    160.6888000   -49.5200000   139.7561000   
19250000000   -42.6839100   178.5332000   -2.9162580    159.1860000   -2.9171620    159.2078000   -48.8350800   144.9510000   
19300000000   -43.3935600   -178.9923000  -2.9175870    157.7029000   -2.9195310    157.7283000   -48.5006500   149.3114000   
19350000000   -44.0262600   -174.7201000  -2.9185550    156.2332000   -2.9219480    156.2483000   -48.1848400   152.0214000   
19400000000   -45.1230700   -168.4879000  -2.9204520    154.7509000   -2.9234580    154.7739000   -47.7322200   157.9390000   
19450000000   -46.2048100   -164.2669000  -2.9233730    153.2716000   -2.9263300    153.2868000   -47.4342100   159.4844000   
19500000000   -47.8681500   -162.5399000  -2.9257700    151.7924000   -2.9274650    151.8039000   -47.2379800   159.0393000   
19550000000   -47.3157500   -161.8118000  -2.9264170    150.3099000   -2.9293340    150.3300000   -47.3299400   164.3265000   
19600000000   -48.6807300   -142.5586000  -2.9294440    148.8279000   -2.9312760    148.8485000   -47.3961600   163.3166000   
19650000000   -51.9577000   -136.5678000  -2.9305780    147.3430000   -2.9336270    147.3681000   -46.8366400   158.9479000   
19700000000   -51.6134600   -133.5498000  -2.9320860    145.8659000   -2.9352270    145.8797000   -46.8850500   163.9157000   
19750000000   -49.0872300   -108.0453000  -2.9346840    144.3822000   -2.9375660    144.4094000   -46.1295400   161.2690000   
19800000000   -51.0298700   -88.2652900   -2.9366260    142.8970000   -2.9395320    142.9182000   -45.1097300   159.9078000   
19850000000   -50.2927400   -74.3209500   -2.9389160    141.4117000   -2.9406170    141.4337000   -45.5315700   160.7011000   
19900000000   -51.4521100   -67.4969300   -2.9410030    139.9296000   -2.9422770    139.9499000   -45.4661900   155.6215000   
19950000000   -49.2764700   -55.5061300   -2.9428100    138.4456000   -2.9447110    138.4707000   -44.9422200   154.0018000   
20000000000   -48.5911800   -47.6134500   -2.9451170    136.9690000   -2.9462360    136.9889000   -44.2547900   152.7379000   
20050000000   -47.4229300   -45.5936600   -2.9481070    135.4885000   -2.9488090    135.5060000   -43.8395800   152.5035000   
20100000000   -45.0082500   -37.5114400   -2.9504080    133.9959000   -2.9513400    134.0195000   -44.0210700   146.6513000   
20150000000   -45.1597100   -24.5565700   -2.9510990    132.5166000   -2.9530230    132.5373000   -43.3590400   139.6491000   
20200000000   -44.1529200   -28.4010300   -2.9543610    131.0311000   -2.9557180    131.0512000   -42.8840800   141.7416000   
20250000000   -44.6139800   -34.0631800   -2.9552450    129.5516000   -2.9566580    129.5628000   -42.7188700   143.5393000   
20300000000   -42.4508900   -24.6495600   -2.9580370    128.0676000   -2.9594670    128.0800000   -42.6531700   137.9962000   
20350000000   -42.0092500   -19.3141700   -2.9601970    126.5879000   -2.9605340    126.5950000   -41.7920200   132.6997000   
20400000000   -41.5149200   -16.1559400   -2.9613760    125.0925000   -2.9621460    125.1117000   -41.4825200   134.2923000   
20450000000   -40.6978400   -11.0557900   -2.9642150    123.6178000   -2.9648710    123.6136000   -41.7426100   129.7746000   
20500000000   -41.8375100   -8.3862020    -2.9650280    122.1201000   -2.9679030    122.1364000   -41.2657400   126.7827000   
20550000000   -40.2097200   -5.8738160    -2.9689230    120.6382000   -2.9710880    120.6445000   -41.4942700   126.7344000   
20600000000   -41.9409900   -1.6224930    -2.9701680    119.1421000   -2.9708570    119.1639000   -41.6980600   125.1624000   
20650000000   -40.9374200   -5.6246130    -2.9732140    117.6612000   -2.9740380    117.6746000   -41.7148400   124.9472000   
20700000000   -40.8391500   -4.6619380    -2.9740210    116.1797000   -2.9760540    116.1891000   -41.4639100   118.3589000   
20750000000   -39.9534700   -2.2054030    -2.9785820    114.6789000   -2.9790680    114.7005000   -41.1095900   116.5285000   
20800000000   -39.2335400   4.7162780     -2.9797130    113.2052000   -2.9795060    113.2153000   -41.6693500   112.6173000   
20850000000   -40.9468200   2.6581940     -2.9816260    111.7032000   -2.9827810    111.7260000   -41.1507000   107.4628000   
20900000000   -39.1115200   2.3907750     -2.9826550    110.2277000   -2.9841440    110.2428000   -40.9535100   106.3626000   
20950000000   -41.1125000   1.0176240     -2.9857410    108.7308000   -2.9874800    108.7503000   -40.6594500   103.2510000   
21000000000   -39.7886100   0.2807477     -2.9893080    107.2533000   -2.9888350    107.2615000   -40.5551100   101.8440000   
21050000000   -40.1125100   -1.8947120    -2.9898880    105.7580000   -2.9921810    105.7683000   -40.2528100   95.8573800    
21100000000   -40.2472300   2.2417810     -2.9936860    104.2715000   -2.9944570    104.2824000   -40.0031800   96.6550700    
21150000000   -40.3607100   -2.4977470    -2.9939870    102.7854000   -2.9962780    102.7893000   -40.2118300   94.2083600    
21200000000   -40.2794200   0.9798141     -2.9978950    101.2817000   -2.9986320    101.2957000   -39.6789400   88.1856800    
21250000000   -40.2987600   16.0931500    -2.9995660    99.7889800    -3.0008270    99.8003000    -40.1982300   89.1493000    
21300000000   -42.4978600   0.6989118     -3.0017750    98.2970000    -3.0017880    98.3166100    -40.2495900   84.9121600    
21350000000   -40.4937400   3.4952550     -3.0041100    96.8306000    -3.0057760    96.8294700    -39.8487200   80.5915900    
21400000000   -40.6801700   4.0928320     -3.0066840    95.3145500    -3.0082870    95.3348100    -39.9622700   73.7116500    
21450000000   -41.7330000   5.0902220     -3.0086650    93.8324900    -3.0101350    93.8413800    -39.3980000   72.6227000    
21500000000   -41.5613300   -0.3036546    -3.0114680    92.3317600    -3.0116650    92.3519700    -39.4702000   70.6717500    
21550000000   -41.4655000   -1.5097280    -3.0135310    90.8340000    -3.0151180    90.8501100    -39.1496700   67.2112400    
21600000000   -42.9748500   -4.7458120    -3.0146340    89.3451000    -3.0162710    89.3718300    -38.9342500   68.3622200    
21650000000   -41.9053700   -10.9327300   -3.0187420    87.8554800    -3.0194220    87.8753600    -38.9061700   63.9141300    
21700000000   -43.5453500   -8.5959180    -3.0196430    86.3629100    -3.0217550    86.3768900    -38.6724700   63.3315100    
21750000000   -42.5252300   -22.1801300   -3.0230960    84.8681100    -3.0248460    84.8848500    -38.9439000   61.9340100    
21800000000   -42.6680900   -13.9540800   -3.0255230    83.3780700    -3.0284590    83.3874100    -39.0961800   58.7600500    
21850000000   -43.6170800   -28.1771200   -3.0281300    81.8784700    -3.0304170    81.8940100    -39.0923800   59.3187600    
21900000000   -42.9364400   -30.6298300   -3.0318160    80.3850600    -3.0336300    80.3954200    -39.1558700   58.2400200    
21950000000   -43.3145100   -37.0162400   -3.0329300    78.8896600    -3.0355660    78.8984900    -39.3747700   57.7327800    
22000000000   -41.2169700   -33.8106000   -3.0356330    77.3994500    -3.0375060    77.4101300    -39.5812100   52.6828800    
22050000000   -41.1965400   -30.6017200   -3.0370410    75.9046600    -3.0411220    75.9102900    -39.2529800   48.7214700    
22100000000   -41.2451900   -34.8433800   -3.0393090    74.4057100    -3.0423860    74.4060900    -39.4781600   50.1604100    
22150000000   -41.4101300   -38.8171300   -3.0420290    72.9053600    -3.0449860    72.9097000    -39.6410100   49.0120700    
22200000000   -40.2803800   -41.4052800   -3.0441550    71.4015600    -3.0476490    71.4187100    -39.4581200   48.1991000    
22250000000   -40.2121100   -39.1540200   -3.0486040    69.9090300    -3.0505480    69.9202700    -39.8396500   49.2998400    
22300000000   -40.1569400   -45.0527600   -3.0512400    68.4077100    -3.0529650    68.4187900    -39.9986300   48.4210400    
22350000000   -39.4421800   -45.3087600   -3.0526320    66.9094600    -3.0549960    66.9220500    -39.9516100   48.6781400    
22400000000   -39.0097500   -41.8628900   -3.0559270    65.4168100    -3.0575950    65.4239200    -40.5157800   48.1614000    
22450000000   -39.9825700   -41.6782800   -3.0577760    63.9177900    -3.0590930    63.9209700    -41.1328600   49.8146500    
22500000000   -39.6133900   -44.8969500   -3.0606760    62.4185400    -3.0638610    62.4242400    -41.2811900   50.0809100    
22550000000   -39.2074700   -45.0857900   -3.0633800    60.9070500    -3.0660460    60.9239300    -41.2555500   50.5317100    
22600000000   -39.0336000   -44.4314400   -3.0665610    59.4155300    -3.0675250    59.4282600    -41.7576900   52.5447700    
22650000000   -38.8471200   -41.9830000   -3.0685430    57.9125100    -3.0709590    57.9287800    -42.5855900   52.1070100    
22700000000   -38.8952400   -45.0361600   -3.0720670    56.4155200    -3.0732990    56.4178700    -42.4269400   50.3770600    
22750000000   -38.5613800   -40.7907500   -3.0733720    54.9119300    -3.0773830    54.9144200    -42.7023600   55.3404100    
22800000000   -39.2700200   -42.4035300   -3.0765440    53.4087400    -3.0794970    53.4104700    -43.0799000   58.1285600    
22850000000   -38.1666300   -42.6509400   -3.0799010    51.9018300    -3.0828840    51.9073700    -43.0012100   58.1459300    
22900000000   -37.8270900   -37.9402700   -3.0832680    50.3950500    -3.0851710    50.4088600    -43.7085800   59.6815000    
22950000000   -38.5107100   -34.5425100   -3.0854740    48.8957700    -3.0876060    48.8957200    -43.8187700   63.7315500    
23000000000   -38.0693200   -40.7620600   -3.0884840    47.3832400    -3.0900270    47.4009100    -43.4503400   62.4836000    
23050000000   -37.3548300   -36.1556400   -3.0912440    45.8859800    -3.0930360    45.8931800    -43.4896900   65.1811000    
23100000000   -38.6754600   -27.7557800   -3.0941190    44.3700900    -3.0948270    44.3863100    -43.1081100   77.3219900    
23150000000   -38.6974100   -36.7840000   -3.0950980    42.8770300    -3.0989070    42.8747000    -43.2291100   79.3299300    
23200000000   -37.9416700   -29.4865600   -3.0996990    41.3668100    -3.1019140    41.3753100    -43.4252700   82.4977300    
23250000000   -37.7525100   -25.9300300   -3.1035310    39.8557200    -3.1052080    39.8747900    -43.5110100   89.2850600    
23300000000   -37.9403500   -21.6543800   -3.1036140    38.3515400    -3.1069670    38.3641600    -43.5051900   89.8612600    
23350000000   -37.3526000   -21.0409000   -3.1084790    36.8394600    -3.1108970    36.8514700    -43.0562100   91.7482800    
23400000000   -38.0037700   -17.9459300   -3.1102650    35.3350900    -3.1135690    35.3427500    -42.1272100   94.4888700    
23450000000   -38.6270500   -19.3014200   -3.1135680    33.8250600    -3.1147920    33.8352300    -41.4121100   96.7327300    
23500000000   -37.4144500   -21.1239500   -3.1160870    32.3186600    -3.1196020    32.3267400    -41.7383300   99.5380100    
23550000000   -37.4768800   -12.8939900   -3.1203430    30.8080500    -3.1220770    30.8180900    -41.2794400   101.9516000   
23600000000   -37.9570900   -10.6974300   -3.1235700    29.2884200    -3.1237080    29.2982300    -40.4697500   103.2263000   
23650000000   -37.9609100   -8.3617760    -3.1258660    27.7822000    -3.1275780    27.8032600    -40.3488000   104.2998000   
23700000000   -37.4456800   -10.2306800   -3.1287880    26.2682500    -3.1309030    26.2910700    -40.1589000   103.6435000   
23750000000   -37.2165400   -6.8337200    -3.1321220    24.7518200    -3.1352490    24.7759900    -39.5919400   104.6020000   
23800000000   -37.5520300   -4.4475070    -3.1350390    23.2517500    -3.1375720    23.2668500    -39.0973200   106.7598000   
23850000000   -37.5868400   -6.9485650    -3.1373340    21.7369000    -3.1401080    21.7457500    -39.0728500   106.3435000   
23900000000   -37.2637200   -4.9330330    -3.1407470    20.2230500    -3.1443320    20.2398100    -38.7784000   107.2518000   
23950000000   -37.2909600   -2.6662720    -3.1448770    18.7107800    -3.1477950    18.7086700    -38.4229500   107.3245000   
24000000000   -37.3023500   -3.8303720    -3.1471290    17.1926700    -3.1508400    17.2084000    -38.1334200   107.2065000   
24050000000   -37.0568700   -2.1506270    -3.1514180    15.6843700    -3.1525190    15.6946200    -37.8366100   106.8627000   
24100000000   -37.7577200   -1.8645030    -3.1551490    14.1604200    -3.1559740    14.1733700    -37.4260900   104.8844000   
24150000000   -37.2432900   -4.1987380    -3.1584890    12.6462400    -3.1594520    12.6578700    -36.9749500   106.4031000   
24200000000   -37.2270100   -0.1350274    -3.1623190    11.1349900    -3.1623470    11.1496000    -36.7674600   107.2653000   
24250000000   -37.8166100   -1.5689240    -3.1650790    9.6123090     -3.1656430    9.6253680     -36.5482100   105.7105000   
24300000000   -37.7481100   -3.9363800    -3.1679290    8.0893880     -3.1690290    8.1052140     -36.3641200   105.4302000   
24350000000   -37.5193300   -7.1588230    -3.1713810    6.5827710     -3.1725590    6.5859170     -36.2707100   105.7422000   
24400000000   -37.3745600   -6.8344150    -3.1741650    5.0621820     -3.1748080    5.0707510     -36.0920200   104.9656000   
24450000000   -37.8724800   -8.1598110    -3.1791350    3.5339200     -3.1794240    3.5472710     -35.7021400   102.7476000   
24500000000   -37.5021900   -10.0500400   -3.1810100    2.0177040     -3.1831110    2.0250750     -35.3489700   103.1451000   
24550000000   -37.0668500   -12.3459500   -3.1868880    0.4909530     -3.1867620    0.5056565     -35.2258100   103.9184000   
24600000000   -37.3097300   -11.2768900   -3.1894220    -1.0219190    -3.1903660    -1.0120770    -35.1568300   102.4732000   
24650000000   -37.3018500   -16.9303000   -3.1935160    -2.5499900    -3.1936160    -2.5363280    -35.0559900   100.6155000   
24700000000   -36.8853100   -18.9601200   -3.1981310    -4.0662890    -3.1967010    -4.0572940    -34.7049800   100.4699000   
24750000000   -36.6119700   -20.2389700   -3.1988640    -5.5967090    -3.2008440    -5.5814290    -34.5038500   100.9551000   
24800000000   -36.5506200   -22.8187100   -3.2046610    -7.1171250    -3.2051450    -7.1115050    -34.3506200   98.6178900    
24850000000   -36.2670200   -26.2387000   -3.2069280    -8.6520680    -3.2084200    -8.6332770    -33.9565800   98.4970600    
24900000000   -35.6145700   -27.1518900   -3.2131710    -10.1617700   -3.2120910    -10.1583400   -33.8592600   98.6096000    
24950000000   -35.6605600   -29.5037100   -3.2165850    -11.6842800   -3.2165640    -11.6877900   -33.6709000   97.5015400    
25000000000   -34.6710400   -29.7222800   -3.2205840    -13.2276200   -3.2195360    -13.2180500   -33.5134800   98.0655700    
25050000000   -34.9582300   -31.3808800   -3.2231480    -14.7510800   -3.2232310    -14.7426300   -33.4041000   96.4445300    
25100000000   -34.3700500   -35.8663900   -3.2285530    -16.2977700   -3.2285220    -16.2655800   -33.2373000   96.3802400    
25150000000   -33.7003300   -34.7508500   -3.2304280    -17.8153100   -3.2319020    -17.7991500   -33.1160900   96.6877400    
25200000000   -33.5185900   -36.1119000   -3.2363910    -19.3517000   -3.2348030    -19.3281800   -32.7817000   95.0696900    
25250000000   -33.0786300   -35.9276800   -3.2399460    -20.8662300   -3.2395750    -20.8638100   -32.6004100   94.3970300    
25300000000   -32.9455500   -39.0893000   -3.2438110    -22.4005500   -3.2438280    -22.3971700   -32.4311900   93.2235800    
25350000000   -32.0533400   -38.3853400   -3.2491610    -23.9374400   -3.2487710    -23.9381700   -32.1708300   93.4685500    
25400000000   -31.9434800   -37.8291400   -3.2513120    -25.4821200   -3.2531110    -25.4673600   -31.9568800   92.7454600    
25450000000   -31.7366800   -39.2813400   -3.2572610    -27.0103000   -3.2576320    -26.9939500   -31.7489400   92.0231600    
25500000000   -31.4585200   -41.1433400   -3.2597780    -28.5421000   -3.2617790    -28.5299100   -31.7712800   92.9939000    
25550000000   -31.0222900   -42.3453400   -3.2653810    -30.0686200   -3.2657490    -30.0671200   -31.7257400   91.1841800    
25600000000   -30.8345000   -41.7446400   -3.2687690    -31.6074200   -3.2701630    -31.6135400   -31.5289600   89.5105100    
25650000000   -30.2896100   -42.5039700   -3.2737850    -33.1425400   -3.2744280    -33.1480400   -31.2188100   87.6472500    
25700000000   -30.0372100   -40.6965400   -3.2784250    -34.6810400   -3.2810720    -34.6953900   -30.8739000   86.5124200    
25750000000   -29.7955700   -42.6429300   -3.2835980    -36.2312200   -3.2839110    -36.2241600   -30.7449900   85.9970600    
25800000000   -29.4105200   -41.3868100   -3.2873510    -37.7602300   -3.2896470    -37.7686300   -30.4781000   83.7902000    
25850000000   -29.4651900   -41.3982400   -3.2920370    -39.3131300   -3.2937960    -39.3130700   -30.2502300   83.2919400    
25900000000   -29.1411800   -42.0879700   -3.2965040    -40.8566600   -3.2974090    -40.8488200   -30.3230300   81.4335600    
25950000000   -29.0458100   -42.1641600   -3.3016950    -42.3973000   -3.3035880    -42.3859100   -30.0062900   79.1293900    
26000000000   -28.5281000   -43.9189900   -3.3072300    -43.9364700   -3.3082710    -43.9379000   -29.7023200   78.8340800    
26050000000   -28.1842900   -42.8123600   -3.3130650    -45.4808400   -3.3141150    -45.4811900   -29.4871900   77.6656400    
26100000000   -28.0166500   -42.4545700   -3.3178750    -47.0303100   -3.3194140    -47.0239000   -29.2105800   76.2279400    
26150000000   -27.7421700   -41.3963300   -3.3224430    -48.5688400   -3.3243250    -48.5755200   -29.1515400   74.1603400    
26200000000   -27.8003100   -41.0018700   -3.3284060    -50.1150500   -3.3289300    -50.1205300   -28.9435300   71.5754500    
26250000000   -27.4585300   -40.6825400   -3.3336870    -51.6649500   -3.3349240    -51.6641300   -28.7014800   69.9802000    
26300000000   -27.4072900   -40.8117400   -3.3394470    -53.2074800   -3.3401730    -53.2124100   -28.5257900   67.9641600    
26350000000   -27.1908500   -41.4080200   -3.3449950    -54.7559100   -3.3462770    -54.7584000   -28.2608400   66.2543800    
26400000000   -26.9618300   -40.2893000   -3.3509980    -56.3094800   -3.3513640    -56.3125300   -28.0416100   64.6085700    
26450000000   -27.1855600   -41.4247900   -3.3538430    -57.8553000   -3.3561560    -57.8591400   -27.9524600   62.3699600    
26500000000   -26.7968600   -40.8659900   -3.3602100    -59.3999000   -3.3620860    -59.4077800   -27.8272600   59.6946500    
26550000000   -26.8873800   -40.4026900   -3.3663650    -60.9602900   -3.3676300    -60.9339200   -27.5782900   57.1648600    
26600000000   -26.7181700   -41.2967200   -3.3722780    -62.5239800   -3.3722750    -62.4791000   -27.4364400   54.8160200    
26650000000   -26.3886900   -40.3523900   -3.3786200    -64.0675400   -3.3785890    -64.0357100   -27.0388500   52.1550900    
26700000000   -26.6258800   -39.8544700   -3.3849150    -65.6398500   -3.3831750    -65.5901500   -26.8339100   50.4288800    
26750000000   -26.4545400   -40.1186600   -3.3900610    -67.1837600   -3.3904690    -67.1408800   -26.7439600   48.0397600    
26800000000   -26.5554900   -41.4514900   -3.3961620    -68.7454700   -3.3958680    -68.7003300   -26.4888200   45.8230200    
26850000000   -26.3811500   -40.5910300   -3.4013880    -70.3134200   -3.4025930    -70.2611000   -26.4223300   43.0761500    
26900000000   -26.3970300   -42.3561900   -3.4084600    -71.8594400   -3.4076640    -71.8139800   -26.1294000   40.1550000    
26950000000   -26.0825300   -42.2271700   -3.4151990    -73.4227900   -3.4142190    -73.3745500   -25.8971000   38.3835400    
27000000000   -26.1331400   -42.8799300   -3.4186870    -74.9855700   -3.4198760    -74.9365200   -25.7684700   35.3498800    
27050000000   -26.0391100   -43.8671800   -3.4258570    -76.5412400   -3.4276790    -76.4881300   -25.4636700   33.1031200    
27100000000   -26.0074500   -43.2536100   -3.4310490    -78.1000800   -3.4328510    -78.0562100   -25.2809300   31.1534300    
27150000000   -26.0103300   -45.3131100   -3.4375040    -79.6484700   -3.4371940    -79.6136100   -25.1115500   28.6066400    
27200000000   -26.0756600   -44.4839500   -3.4416940    -81.2237700   -3.4440150    -81.1860800   -25.0163700   26.2226200    
27250000000   -25.7910000   -47.6696900   -3.4469180    -82.7926300   -3.4506350    -82.7474700   -24.7740400   23.5545700    
27300000000   -25.5213000   -45.8234700   -3.4536650    -84.3510700   -3.4568870    -84.3170200   -24.5116800   21.0262200    
27350000000   -25.5893700   -47.4908300   -3.4589420    -85.9388000   -3.4616940    -85.8797500   -24.3623300   18.1537600    
27400000000   -25.3448200   -47.6610500   -3.4661520    -87.4813900   -3.4685830    -87.4424500   -24.1070700   15.2918200    
27450000000   -25.3209400   -47.8019600   -3.4721130    -89.0729300   -3.4746760    -89.0226900   -23.9171600   12.9308800    
27500000000   -25.0414100   -49.3116800   -3.4780600    -90.6347300   -3.4825480    -90.5960500   -23.7604500   10.3370600    
27550000000   -25.2518100   -49.3996400   -3.4841810    -92.2220300   -3.4891880    -92.1836100   -23.6346600   7.7221160     
27600000000   -24.7171900   -51.6513100   -3.4910480    -93.7911900   -3.4946710    -93.7375200   -23.4862600   4.8846880     
27650000000   -24.7547600   -50.6156200   -3.4958540    -95.3662900   -3.5003080    -95.3176000   -23.3040000   2.2675000     
27700000000   -24.7086200   -52.7430400   -3.5048970    -96.9580500   -3.5056590    -96.9119600   -23.1909800   -0.7381974    
27750000000   -24.3416700   -53.5495200   -3.5071040    -98.5307300   -3.5116450    -98.4904200   -22.9673100   -3.4018860    
27800000000   -24.3503400   -53.2819900   -3.5158880    -100.1025000  -3.5192240    -100.0699000  -22.7903700   -6.3127190    
27850000000   -24.0111500   -55.2229200   -3.5232450    -101.6984000  -3.5255960    -101.6527000  -22.5865800   -8.8154510    
27900000000   -23.8455000   -55.5327000   -3.5296900    -103.2825000  -3.5322520    -103.2538000  -22.3763500   -11.2483300   
27950000000   -23.5304900   -55.1702500   -3.5371400    -104.8563000  -3.5403190    -104.8200000  -22.1341900   -14.1901400   
28000000000   -23.4768400   -55.4627900   -3.5430760    -106.4648000  -3.5458950    -106.4199000  -21.9133100   -16.5637200   
28050000000   -23.2349500   -57.0625900   -3.5496670    -108.0525000  -3.5523510    -108.0107000  -21.7517000   -18.9153400   
28100000000   -22.9978600   -57.6610100   -3.5568480    -109.6666000  -3.5602020    -109.6122000  -21.5496500   -21.2133300   
28150000000   -22.7291800   -58.4284100   -3.5622560    -111.2479000  -3.5666330    -111.2166000  -21.3667600   -23.5581500   
28200000000   -22.5211900   -58.9517500   -3.5713590    -112.8558000  -3.5718310    -112.8197000  -21.1604100   -26.4996700   
28250000000   -22.1673900   -59.8048800   -3.5780000    -114.4606000  -3.5795360    -114.4179000  -20.8672700   -28.4987200   
28300000000   -21.8540200   -59.8015400   -3.5868850    -116.0573000  -3.5872540    -116.0256000  -20.6874700   -30.4034100   
28350000000   -21.6843800   -59.9507800   -3.5962990    -117.6818000  -3.5953760    -117.6409000  -20.5109700   -32.8657100   
28400000000   -21.5342600   -60.3580300   -3.6032510    -119.2997000  -3.6028030    -119.2576000  -20.3247600   -35.1409400   
28450000000   -21.3753000   -61.9479200   -3.6097780    -120.9274000  -3.6107130    -120.8910000  -20.1646500   -37.2050900   
28500000000   -21.0419300   -62.7329100   -3.6167470    -122.5605000  -3.6201120    -122.5168000  -19.9719700   -39.3818700   
28550000000   -20.8126800   -62.8694100   -3.6257990    -124.1723000  -3.6276430    -124.1446000  -19.7858000   -41.8407100   
28600000000   -20.6134500   -62.7677500   -3.6359320    -125.8065000  -3.6360980    -125.7905000  -19.5504300   -44.3642400   
28650000000   -20.4463900   -63.2459500   -3.6457460    -127.4421000  -3.6457770    -127.4206000  -19.3175900   -46.3472900   
28700000000   -20.2618300   -64.3290800   -3.6545140    -129.1044000  -3.6547960    -129.0746000  -19.1748400   -48.3659900   
28750000000   -20.0094500   -64.8479900   -3.6644570    -130.7598000  -3.6664760    -130.7348000  -18.9325100   -50.7201800   
28800000000   -19.7508800   -65.3093500   -3.6759760    -132.4097000  -3.6769830    -132.3769000  -18.6418800   -52.4415900   
28850000000   -19.5203900   -65.7743200   -3.6870780    -134.0674000  -3.6895170    -134.0394000  -18.4495700   -54.0673100   
28900000000   -19.2883300   -66.7925400   -3.7004320    -135.7342000  -3.7009410    -135.7075000  -18.2373100   -55.9733800   
28950000000   -19.0194000   -67.2264600   -3.7148440    -137.4173000  -3.7147470    -137.3903000  -17.9919200   -57.7953500   
29000000000   -18.8188600   -67.4851100   -3.7279010    -139.0821000  -3.7297680    -139.0592000  -17.7555900   -59.6487900   
29050000000   -18.6717500   -68.3029900   -3.7433060    -140.7579000  -3.7444180    -140.7403000  -17.5381300   -61.3274600   
29100000000   -18.3794800   -69.0839500   -3.7606150    -142.4596000  -3.7618500    -142.4390000  -17.2767900   -63.0747400   
29150000000   -18.1291800   -69.1181100   -3.7810590    -144.1570000  -3.7818290    -144.1346000  -16.9730700   -64.7625000   
29200000000   -17.9515700   -70.2182900   -3.8019990    -145.8728000  -3.8043980    -145.8466000  -16.7015700   -65.8476700   
29250000000   -17.6734200   -71.1000300   -3.8261300    -147.5852000  -3.8265610    -147.5543000  -16.4672700   -67.2206600   
29300000000   -17.5351500   -71.3773000   -3.8539120    -149.3073000  -3.8555970    -149.2946000  -16.1787900   -68.9268100   
29350000000   -17.3055100   -72.4748700   -3.8850940    -151.0329000  -3.8864780    -151.0047000  -15.8196200   -70.0630200   
29400000000   -17.0738300   -72.9266400   -3.9245930    -152.7460000  -3.9263300    -152.7267000  -15.4634300   -71.1577900   
29450000000   -16.7986600   -73.6014600   -3.9713880    -154.4532000  -3.9770630    -154.4297000  -15.0318100   -72.1632500   
29500000000   -16.5538500   -73.6917900   -4.0368030    -156.1102000  -4.0406260    -156.0920000  -14.5375400   -73.0447800   
29550000000   -16.3558800   -73.7849800   -4.1205210    -157.6729000  -4.1229210    -157.6583000  -13.9135000   -74.0124900   
29600000000   -16.0232400   -73.3371900   -4.2362210    -158.9494000  -4.2386220    -158.9217000  -13.0351000   -75.1932000   
29650000000   -15.5763400   -70.8860700   -4.3702930    -159.4340000  -4.3744900    -159.4080000  -11.7609000   -78.3824200   
29700000000   -14.5618800   -68.7420800   -4.3048630    -158.1388000  -4.3118250    -158.0940000  -10.1208500   -88.3321200   
29750000000   -13.1066300   -74.7874200   -3.5971100    -159.0017000  -3.6011180    -158.9641000  -10.0452300   -108.0038000  
29800000000   -12.9699100   -82.5951700   -3.3264420    -164.2213000  -3.3279260    -164.1686000  -12.0126500   -116.9189000  
29850000000   -12.9933500   -86.4407800   -3.4222280    -168.1160000  -3.4224100    -168.0846000  -13.1904500   -115.0810000  
29900000000   -12.8711100   -88.0277800   -3.5426530    -171.0650000  -3.5443960    -171.0348000  -13.4754200   -112.4934000  
29950000000   -12.6712600   -89.8599900   -3.6460790    -173.7020000  -3.6484040    -173.6695000  -13.3575900   -110.9982000  
30000000000   -12.2840000   -91.3963000   -3.7435350    -176.2749000  -3.7457870    -176.2351000  -13.0573700   -110.4437000  
30050000000   -11.8976200   -92.8383600   -3.8399330    -178.9239000  -3.8401020    -178.8672000  -12.6812300   -111.0373000  
30100000000   -11.4294300   -94.9923700   -3.9413190    178.2618000   -3.9441410    178.3108000   -12.1969800   -112.2552000  
30150000000   -10.8355000   -97.3244600   -4.0714870    175.2119000   -4.0713790    175.2497000   -11.6242300   -113.7810000  
30200000000   -10.1510200   -100.3113000  -4.2367600    171.7507000   -4.2379320    171.7984000   -11.0071300   -116.1143000  
30250000000   -9.3121390    -103.9083000  -4.4828220    167.7234000   -4.4825290    167.7567000   -10.2386900   -119.5461000  
30300000000   -8.3206740    -108.6614000  -4.8783560    162.8032000   -4.8799260    162.8438000   -9.3026910    -124.1517000  
30350000000   -7.1239180    -115.8645000  -5.6004900    156.5610000   -5.6038020    156.5916000   -8.1956780    -130.9076000  
30400000000   -5.7216590    -127.0199000  -7.1693190    148.8072000   -7.1736470    148.8279000   -6.9484150    -141.7953000  
30450000000   -4.5034190    -145.6182000  -11.2323200   145.5713000   -11.2408300   145.5836000   -5.8967530    -159.9516000  
30500000000   -4.5989600    -172.4645000  -14.3774400   -160.1580000  -14.3868700   -160.1312000  -6.1911710    174.2941000   
30550000000   -6.9200560    161.7857000   -7.8988570    -148.4883000  -7.9036720    -148.4525000  -8.7197280    150.5700000   
30600000000   -10.4758500   145.2292000   -5.5225270    -159.4106000  -5.5235180    -159.3757000  -12.3190100   136.7539000   
30650000000   -14.6707600   137.3113000   -4.7430640    -167.9551000  -4.7437330    -167.9151000  -16.2727800   131.3496000   
30700000000   -19.3632100   139.9477000   -4.4044690    -173.6696000  -4.4049110    -173.6391000  -20.7602800   135.8407000   
30750000000   -23.7103500   155.9940000   -4.1972070    -178.1215000  -4.1969290    -178.0771000  -24.7491800   156.6280000   
30800000000   -25.9467600   -176.3025000  -4.0698630    178.0817000   -4.0688530    178.1289000   -25.8154500   -172.7950000  
30850000000   -25.2978500   -148.9205000  -3.9943690    174.7523000   -3.9943010    174.7867000   -24.4450700   -152.1169000  
30900000000   -23.9125400   -133.4463000  -3.9500240    171.7671000   -3.9500720    171.7992000   -22.7992300   -142.6024000  
30950000000   -22.4977500   -126.7025000  -3.9246310    169.0215000   -3.9248530    169.0567000   -21.4747200   -138.0081000  
31000000000   -21.2334000   -122.7483000  -3.9118410    166.4696000   -3.9114170    166.5062000   -20.4527800   -135.7988000  
31050000000   -20.3376000   -121.3254000  -3.9065210    164.0694000   -3.9063460    164.1015000   -19.6199800   -135.0955000  
31100000000   -19.4438600   -119.8773000  -3.9041890    161.7781000   -3.9064880    161.8067000   -18.8984900   -134.7933000  
31150000000   -18.8534100   -118.9957000  -3.9099740    159.5552000   -3.9106860    159.5944000   -18.3494000   -135.2585000  
31200000000   -18.3131800   -119.2935000  -3.9152630    157.4066000   -3.9171130    157.4516000   -17.8650400   -135.8009000  
31250000000   -17.7892200   -119.2555000  -3.9256020    155.3095000   -3.9252170    155.3573000   -17.4590500   -136.6214000  
31300000000   -17.4383300   -119.7063000  -3.9327700    153.2610000   -3.9336150    153.2917000   -17.0798300   -137.8181000  
31350000000   -17.0334200   -120.4413000  -3.9439230    151.2348000   -3.9457630    151.2736000   -16.6898400   -138.6987000  
31400000000   -16.7519600   -120.9819000  -3.9551180    149.2433000   -3.9576370    149.2769000   -16.4109100   -139.6679000  
31450000000   -16.4748700   -122.5736000  -3.9695000    147.2635000   -3.9724010    147.3069000   -16.1232700   -140.8843000  
31500000000   -16.1395600   -123.4224000  -3.9845760    145.3052000   -3.9866870    145.3414000   -15.8152200   -141.8658000  
31550000000   -15.9399400   -124.7201000  -3.9993240    143.3667000   -4.0027940    143.4021000   -15.5845700   -143.0309000  
31600000000   -15.6268700   -125.8184000  -4.0171670    141.4307000   -4.0193130    141.4568000   -15.3057700   -144.3732000  
31650000000   -15.4450000   -126.7680000  -4.0353350    139.5371000   -4.0368570    139.5605000   -15.0398700   -145.5923000  
31700000000   -15.2098800   -127.7669000  -4.0564880    137.6102000   -4.0575000    137.6468000   -14.8044900   -146.9283000  
31750000000   -15.0770600   -128.6559000  -4.0768450    135.7344000   -4.0786250    135.7592000   -14.5575600   -148.4362000  
31800000000   -14.9715200   -130.3412000  -4.0989030    133.8215000   -4.1011030    133.8678000   -14.3334400   -149.7864000  
31850000000   -14.7344000   -131.7064000  -4.1231160    131.9451000   -4.1252340    131.9828000   -14.0682400   -151.3557000  
31900000000   -14.5758500   -132.9489000  -4.1490530    130.0848000   -4.1514140    130.1156000   -13.8247100   -152.8348000  
31950000000   -14.4726100   -134.3674000  -4.1744500    128.2224000   -4.1759560    128.2451000   -13.6203900   -154.4321000  
32000000000   -14.3203500   -135.7715000  -4.1993940    126.3861000   -4.2028090    126.4036000   -13.3824700   -156.2281000  
32050000000   -14.1910800   -137.0318000  -4.2259410    124.5397000   -4.2285570    124.5597000   -13.1966500   -157.9215000  
32100000000   -14.0479900   -138.7021000  -4.2546980    122.7012000   -4.2572830    122.7367000   -13.0029500   -159.9954000  
32150000000   -13.9281800   -139.6980000  -4.2828980    120.8745000   -4.2840820    120.8991000   -12.7680100   -162.0005000  
32200000000   -13.8044400   -141.5727000  -4.3096050    119.0358000   -4.3118690    119.0836000   -12.5595700   -163.7394000  
32250000000   -13.6288100   -143.0068000  -4.3361180    117.2094000   -4.3400640    117.2482000   -12.3812100   -165.5019000  
32300000000   -13.5273700   -144.2372000  -4.3629500    115.4189000   -4.3659640    115.4284000   -12.2187900   -167.4799000  
32350000000   -13.4060200   -145.7659000  -4.3877100    113.5996000   -4.3933160    113.6268000   -12.0437200   -169.3884000  
32400000000   -13.2885600   -147.3043000  -4.4160280    111.7794000   -4.4181200    111.8023000   -11.8973400   -171.1967000  
32450000000   -13.1405800   -149.2965000  -4.4431440    109.9316000   -4.4452030    109.9666000   -11.7399200   -172.9270000  
32500000000   -12.9827900   -150.6697000  -4.4712310    108.0891000   -4.4724250    108.1329000   -11.6044100   -174.6172000  
32550000000   -12.8891100   -152.2974000  -4.4952720    106.2717000   -4.4985550    106.2978000   -11.4809100   -176.4318000  
32600000000   -12.7641200   -153.7178000  -4.5193890    104.4229000   -4.5211770    104.4495000   -11.3586600   -178.2167000  
32650000000   -12.6628100   -155.1259000  -4.5453280    102.5699000   -4.5474750    102.6044000   -11.2579300   179.8642000   
32700000000   -12.5410700   -156.7441000  -4.5738900    100.6955000   -4.5778940    100.7367000   -11.1140400   177.9095000   
32750000000   -12.3666900   -158.4520000  -4.6050590    98.8128900    -4.6079690    98.8486100    -10.9652300   176.2271000   
32800000000   -12.2354100   -160.2841000  -4.6375910    96.9485200    -4.6395310    96.9765300    -10.8305400   174.4994000   
32850000000   -12.1184300   -161.8061000  -4.6667090    95.0700200    -4.6691680    95.0998200    -10.7019300   172.7831000   
32900000000   -11.9769200   -163.5993000  -4.6991480    93.1889300    -4.7038680    93.1992800    -10.5768900   171.0757000   
32950000000   -11.8241100   -165.0883000  -4.7329770    91.2727700    -4.7354840    91.3037500    -10.4475600   169.2682000   
33000000000   -11.7132300   -166.3365000  -4.7668120    89.3453400    -4.7700850    89.3857000    -10.3247300   167.4883000   
33050000000   -11.6321400   -168.2534000  -4.8021720    87.4231000    -4.8044690    87.4502000    -10.1902900   165.7567000   
33100000000   -11.4507800   -170.2493000  -4.8436100    85.4982300    -4.8439910    85.5160700    -10.0435900   164.1441000   
33150000000   -11.3073800   -171.9217000  -4.8830060    83.5395800    -4.8862730    83.5767400    -9.9138450    162.4720000   
33200000000   -11.1454000   -173.4512000  -4.9253020    81.5817600    -4.9287920    81.6159200    -9.7811360    160.6784000   
33250000000   -11.0535900   -174.9546000  -4.9702060    79.6096500    -4.9722230    79.6393100    -9.6289130    158.9666000   
33300000000   -10.9058800   -176.9561000  -5.0183450    77.6347300    -5.0207090    77.6613500    -9.4826450    157.4719000   
33350000000   -10.7335900   -178.3494000  -5.0718250    75.6215800    -5.0738180    75.6372800    -9.3513230    155.8529000   
33400000000   -10.6516100   179.9911000   -5.1246190    73.5949900    -5.1246320    73.6271500    -9.2039070    154.1710000   
33450000000   -10.4753400   178.5002000   -5.1862860    71.5338100    -5.1873110    71.5889700    -9.0435150    152.6146000   
33500000000   -10.3711200   176.9953000   -5.2472980    69.4856500    -5.2478720    69.5200100    -8.9018510    151.1438000   
33550000000   -10.2551200   175.1519000   -5.3113170    67.3830000    -5.3144690    67.4338800    -8.7629850    149.4998000   
33600000000   -10.1204200   173.8244000   -5.3884420    65.2904400    -5.3923380    65.3273200    -8.5784960    147.8427000   
33650000000   -10.0616800   172.1825000   -5.4689290    63.1801900    -5.4732370    63.2092300    -8.4120860    146.5115000   
33700000000   -9.9396400    170.4232000   -5.5620940    60.9915400    -5.5665120    61.0046500    -8.2491180    144.9303000   
33750000000   -9.8298390    169.2448000   -5.6703420    58.7880600    -5.6723750    58.8188400    -8.0317110    143.3054000   
33800000000   -9.7601590    168.0645000   -5.7945260    56.5821300    -5.7985360    56.6188200    -7.8137080    141.9345000   
33850000000   -9.6811910    166.9087000   -5.9409000    54.3612300    -5.9440480    54.4096300    -7.5608020    140.5238000   
33900000000   -9.6574520    165.8622000   -6.1183310    52.1384600    -6.1223150    52.1788800    -7.2800280    139.2527000   
33950000000   -9.6201020    164.8918000   -6.3386240    49.9825500    -6.3444690    50.0030100    -6.9481290    137.9512000   
34000000000   -9.5836730    164.7339000   -6.6309940    47.9988400    -6.6357540    48.0191600    -6.5503330    136.6385000   
34050000000   -9.5594300    164.9320000   -7.0117460    46.4313900    -7.0149940    46.4586100    -6.0690080    134.9131000   
34100000000   -9.3912960    166.5820000   -7.5159670    45.9937700    -7.5177200    46.0144700    -5.4088550    132.2815000   
34150000000   -8.9472870    169.2216000   -8.0397270    48.2059000    -8.0431700    48.2183200    -4.6329340    128.2826000   
34200000000   -7.9207790    170.3660000   -8.0385330    53.9042200    -8.0424120    53.9375000    -3.9598830    121.0237000   
34250000000   -6.6701840    167.0226000   -7.0041230    57.3792900    -7.0116510    57.4181900    -3.8166580    111.2147000   
34300000000   -5.9666160    159.7914000   -5.9161660    53.9206500    -5.9213880    53.9274100    -4.3830320    103.3968000   
34350000000   -5.7671080    153.3353000   -5.4180660    47.9499700    -5.4249170    47.9490900    -5.1300030    99.3772800    
34400000000   -5.7865300    148.3918000   -5.2992640    42.4270100    -5.3042650    42.4200500    -5.6547220    97.9018900    
34450000000   -5.8081050    144.3101000   -5.3430440    37.6667900    -5.3473190    37.6700500    -5.9333210    97.2817800    
34500000000   -5.7954180    141.1396000   -5.4442050    33.5434300    -5.4513180    33.5565500    -6.0447580    96.8408100    
34550000000   -5.7693320    138.0351000   -5.5702220    29.7303200    -5.5779050    29.7438400    -6.0737190    96.1128200    
34600000000   -5.7012730    135.2542000   -5.7163370    26.1229000    -5.7240410    26.1368600    -6.0193020    94.9356600    
34650000000   -5.6116560    132.5313000   -5.8695380    22.6307800    -5.8779680    22.6454200    -5.9113540    93.5636700    
34700000000   -5.5100420    129.8471000   -6.0316330    19.2057800    -6.0415250    19.2271300    -5.7800540    92.0563000    
34750000000   -5.3988870    127.1071000   -6.2069370    15.7604100    -6.2184310    15.7929300    -5.6379750    90.3559300    
34800000000   -5.2382110    124.0829000   -6.3966910    12.2112500    -6.4074840    12.2452600    -5.4697380    88.3533400    
34850000000   -5.0844150    121.1331000   -6.6155340    8.5616650     -6.6222880    8.5962330     -5.2816680    86.2800800    
34900000000   -4.8945250    117.9204000   -6.8415890    4.7975870     -6.8495250    4.8330770     -5.0966410    84.0501800    
34950000000   -4.7054010    114.7656000   -7.1139640    0.8430658     -7.1193700    0.8809215     -4.8996170    81.5222800    
35000000000   -4.4989910    111.3393000   -7.4139470    -3.3649480    -7.4205170    -3.3233670    -4.6884510    78.8582700    
35050000000   -4.2861290    107.8463000   -7.7551340    -7.7885040    -7.7632930    -7.7340900    -4.4720420    76.0181000    
35100000000   -4.0769220    103.8479000   -8.1717110    -12.6412700   -8.1782970    -12.5823500   -4.2603110    72.8847700    
35150000000   -3.8262120    99.5581700    -8.6667910    -17.9462200   -8.6740130    -17.9137300   -4.0398800    69.3991300    
35200000000   -3.5880120    95.0033800    -9.2926040    -23.8479400   -9.2968430    -23.8100900   -3.8149770    65.5464200    
35250000000   -3.3378710    89.9975800    -10.0529700   -30.5204300   -10.0565500   -30.4905000   -3.5906710    61.3965400    
35300000000   -3.1093040    84.3354300    -11.0479400   -38.2623400   -11.0522300   -38.2544600   -3.3895560    56.7169800    
35350000000   -2.8784480    78.2899500    -12.3564800   -47.5209400   -12.3584100   -47.5219500   -3.1947260    51.6030400    
35400000000   -2.7008150    71.5485200    -14.1560100   -59.2443400   -14.1602600   -59.2241100   -3.0524570    46.0225700    
35450000000   -2.5807740    64.1415300    -16.7071300   -75.8351100   -16.7115500   -75.8213700   -2.9836670    39.7593100    
35500000000   -2.5513440    55.8899700    -20.2047400   -104.6935000  -20.2177500   -104.6971000  -3.0021190    32.8683300    
35550000000   -2.6336560    47.0249900    -22.2716200   -160.2027000  -22.2774100   -160.2252000  -3.1517080    25.4002600    
35600000000   -2.9336130    37.6776700    -18.8313500   148.9645000   -18.8376900   148.9430000   -3.4587340    17.6237700    
35650000000   -3.3956890    27.6840300    -15.0049200   121.9151000   -15.0103000   121.9135000   -3.9699450    9.8108120     
35700000000   -4.1158650    18.2796000    -12.2475000   104.1893000   -12.2563400   104.1705000   -4.6754600    2.0025240     
35750000000   -5.0575270    8.7269580     -10.3353900   90.3016700    -10.3410300   90.3187200    -5.5507270    -5.2451930    
35800000000   -6.1400820    0.5129401     -8.9915320    78.7550400    -8.9963690    78.7675600    -6.5859950    -11.9898600   
35850000000   -7.5013470    -7.0047310    -8.0121610    68.9048600    -8.0184460    68.9409300    -7.7654940    -18.1262300   
35900000000   -8.8782110    -13.7336800   -7.3010640    60.3255000    -7.3024230    60.3482600    -9.1466590    -23.9075200   
35950000000   -10.4749700   -19.5280400   -6.7431000    52.6804500    -6.7489830    52.7061800    -10.7242100   -29.1153800   
36000000000   -12.1083400   -25.1620100   -6.3237270    45.7201900    -6.3252780    45.7313900    -12.6452800   -32.9287700   
36050000000   -13.9283400   -29.4679300   -5.9974100    39.2455300    -6.0032680    39.2478600    -14.9803200   -35.3818000   
36100000000   -16.0536700   -33.2975900   -5.7608220    33.2684100    -5.7649440    33.2700000    -17.7102500   -34.7388000   
36150000000   -18.4600800   -35.3612000   -5.5971830    27.6828600    -5.6009280    27.6661100    -20.9614700   -27.1876800   
36200000000   -21.5176200   -36.7049000   -5.4832540    22.4819000    -5.4857960    22.4833900    -24.3155500   -7.2423540    
36250000000   -25.1002800   -34.0593200   -5.4116070    17.6353300    -5.4162090    17.6241800    -25.3491200   26.0956900    
36300000000   -30.0936600   -17.4652200   -5.3704800    13.0605300    -5.3753710    13.0658500    -23.3516700   51.5083700    
36350000000   -34.0276300   39.4181300    -5.3540120    8.7541070     -5.3565560    8.7610480     -20.8345800   63.1341500    
36400000000   -29.8552500   77.6204000    -5.3522510    4.6781180     -5.3585030    4.6894290     -18.8838600   68.2921600    
36450000000   -25.7775200   86.9269000    -5.3691750    0.7778621     -5.3713160    0.7992930     -17.3818500   69.9841800    
36500000000   -22.9913400   90.9717800    -5.3900630    -2.9411650    -5.3958000    -2.9464410    -16.1124200   69.7907600    
36550000000   -21.3866800   90.9368900    -5.4281640    -6.5282040    -5.4322390    -6.5358110    -15.0976200   69.1773900    
36600000000   -19.9264200   88.8491300    -5.4656850    -10.0341300   -5.4693360    -10.0212400   -14.2463300   68.0323300    
36650000000   -18.6531500   87.0300500    -5.5119810    -13.4255400   -5.5174950    -13.4077000   -13.5018900   66.6013800    
36700000000   -17.6750000   85.4722700    -5.5632330    -16.7315500   -5.5664110    -16.7159400   -12.8570300   64.9462100    
36750000000   -16.8497700   83.1918100    -5.6184340    -19.9592200   -5.6218380    -19.9663700   -12.2769900   63.2149500    
36800000000   -16.1178000   80.9215200    -5.6813270    -23.1383600   -5.6831430    -23.1341700   -11.7704400   61.4481200    
36850000000   -15.5713900   78.6461300    -5.7407010    -26.2553100   -5.7447200    -26.2598400   -11.3005700   59.7120200    
36900000000   -15.0040600   75.3870900    -5.8075400    -29.3555400   -5.8099860    -29.3546300   -10.8984500   58.1741600    
36950000000   -14.5207100   73.4850000    -5.8711270    -32.3946700   -5.8757040    -32.3781800   -10.5528700   56.1972400    
37000000000   -14.0595600   70.8989300    -5.9452980    -35.4036500   -5.9484370    -35.3885200   -10.1894300   54.2250300    
37050000000   -13.6071900   68.9581300    -6.0195500    -38.4065900   -6.0229000    -38.3969700   -9.8805500    52.3806900    
37100000000   -13.3373400   66.6880100    -6.0887350    -41.3752700   -6.0950740    -41.3631400   -9.5995580    50.3700000    
37150000000   -12.9105400   63.8126900    -6.1721110    -44.3714400   -6.1760510    -44.3548200   -9.3173940    48.4559800    
37200000000   -12.6573500   62.0754000    -6.2498430    -47.3133500   -6.2528800    -47.3103800   -9.0661260    46.4089700    
37250000000   -12.3260800   58.7347800    -6.3382230    -50.3260900   -6.3400590    -50.3160900   -8.7951500    44.4530200    
37300000000   -11.9863300   56.9340800    -6.4227860    -53.2775600   -6.4262570    -53.2694200   -8.5638730    42.5937000    
37350000000   -11.8615000   54.6732600    -6.5090100    -56.2437400   -6.5123710    -56.2125800   -8.3481070    40.5160000    
37400000000   -11.4931900   51.5477400    -6.6043340    -59.2585900   -6.6111980    -59.2286500   -8.1086930    38.6884000    
37450000000   -11.2733900   50.2178600    -6.6964330    -62.1932500   -6.7016520    -62.1671200   -7.9304490    36.7230400    
37500000000   -11.1158000   47.7401800    -6.7938310    -65.2027500   -6.7989260    -65.1860700   -7.7286670    34.5817400    
37550000000   -10.8745500   45.6544600    -6.8903130    -68.1917300   -6.8968170    -68.2016000   -7.5290700    32.6787500    
37600000000   -10.6911400   43.8265400    -7.0000070    -71.2311700   -7.0040360    -71.2335200   -7.3635850    30.4962400    
37650000000   -10.5238100   41.4819500    -7.1071840    -74.2661000   -7.1111530    -74.2631200   -7.1644830    28.4752100    
37700000000   -10.3445400   39.7302300    -7.2177450    -77.3375900   -7.2227990    -77.3161200   -7.0087680    26.4167300    
37750000000   -10.2221000   37.3942900    -7.3311460    -80.4536200   -7.3362760    -80.4428600   -6.8337380    24.2544500    
37800000000   -10.0437700   35.0926700    -7.4475740    -83.5333000   -7.4552860    -83.5249600   -6.6705230    22.2654300    
37850000000   -9.9220650    33.7212300    -7.5644460    -86.6742600   -7.5717380    -86.6836200   -6.5191070    20.0728700    
37900000000   -9.8108980    31.0465100    -7.6921580    -89.8546400   -7.6962890    -89.8509400   -6.3616290    17.9223700    
37950000000   -9.5961150    29.2989600    -7.8236220    -93.0789000   -7.8244590    -93.0927400   -6.2150320    15.6875200    
38000000000   -9.5121830    27.9459700    -7.9531210    -96.3329800   -7.9538840    -96.3134800   -6.0538970    13.4451300    
38050000000   -9.4463780    25.7147900    -8.0847610    -99.6388000   -8.0870270    -99.6231800   -5.9155060    11.4103100    
38100000000   -9.3266030    23.8210500    -8.2097130    -103.0153000  -8.2158490    -102.9844000  -5.7848240    9.2052390     
38150000000   -9.2348030    21.8718700    -8.3493900    -106.4212000  -8.3574540    -106.3694000  -5.6590500    6.9817190     
38200000000   -9.1187110    19.9203500    -8.4906590    -109.8803000  -8.4972840    -109.8613000  -5.5309300    4.7974630     
38250000000   -9.0213580    18.4388900    -8.6366490    -113.3796000  -8.6417420    -113.3817000  -5.4035610    2.6100680     
38300000000   -9.0211070    16.7845100    -8.7767210    -117.0183000  -8.7818260    -117.0145000  -5.2767060    0.4577432     
38350000000   -8.9426650    14.8333400    -8.9278670    -120.7438000  -8.9300150    -120.7421000  -5.1533910    -1.7021240    
38400000000   -8.8761970    13.4117700    -9.0852910    -124.5782000  -9.0857240    -124.5540000  -5.0399040    -3.8660390    
38450000000   -8.8882010    11.5796100    -9.2374680    -128.5108000  -9.2367600    -128.4532000  -4.9140040    -6.0494430    
38500000000   -8.8091880    9.8569330     -9.4015730    -132.5027000  -9.4054690    -132.4835000  -4.7903610    -8.2094280    
38550000000   -8.8106920    8.6329680     -9.5582130    -136.6195000  -9.5656490    -136.5930000  -4.6702930    -10.3190900   
38600000000   -8.8265020    7.1117860     -9.7241080    -140.8469000  -9.7304780    -140.8580000  -4.5577370    -12.4929100   
38650000000   -8.8205730    5.7012390     -9.8947890    -145.2213000  -9.8995060    -145.2193000  -4.4408600    -14.6536200   
38700000000   -8.8866510    4.3552050     -10.0614600   -149.7494000  -10.0629700   -149.7520000  -4.3234740    -16.9059400   
38750000000   -8.8728810    3.1001640     -10.2452000   -154.4520000  -10.2469700   -154.4503000  -4.2095490    -19.2841600   
38800000000   -8.8785770    2.2210530     -10.4327800   -159.2708000  -10.4336900   -159.2436000  -4.0753870    -21.5390600   
38850000000   -8.9494760    1.0224760     -10.6169300   -164.2850000  -10.6197300   -164.2526000  -3.9445570    -23.7515500   
38900000000   -8.9077630    0.0117990     -10.8101100   -169.4157000  -10.8128100   -169.4026000  -3.8240870    -25.9980900   
38950000000   -8.9714360    -0.5439875    -10.9924300   -174.7406000  -10.9973800   -174.7218000  -3.6882830    -28.3565600   
39000000000   -8.9856450    -1.6061420    -11.1916500   179.7535000   -11.1989500   179.7577000   -3.5511710    -30.5766200   
39050000000   -8.9347530    -2.2199950    -11.3820500   174.0338000   -11.3876600   174.0287000   -3.4330750    -32.8439100   
39100000000   -8.9317750    -2.6318790    -11.5716300   168.1464000   -11.5750500   168.1385000   -3.3054870    -35.3241000   
39150000000   -8.8846450    -3.2763790    -11.7658900   161.9911000   -11.7718200   162.0027000   -3.1673620    -37.7471900   
39200000000   -8.7863410    -3.8337540    -11.9586000   155.6161000   -11.9663100   155.6428000   -3.0453040    -40.1383000   
39250000000   -8.6984290    -3.9038050    -12.1705200   148.9179000   -12.1760000   148.9204000   -2.9293330    -42.7803000   
39300000000   -8.6274500    -4.8042660    -12.3927600   142.0920000   -12.3961500   142.1039000   -2.8006990    -45.3132300   
39350000000   -8.5710730    -5.3884200    -12.6711400   135.3484000   -12.6787000   135.3528000   -2.6743770    -47.8955500   
39400000000   -8.4401230    -4.8072150    -12.8800700   129.0662000   -12.8883900   129.0945000   -2.5319970    -50.5047100   
39450000000   -8.2147580    -4.1871480    -13.0111600   122.2540000   -13.0191500   122.2672000   -2.4205040    -53.5676100   
39500000000   -7.8551840    -4.4907820    -13.2015800   114.8253000   -13.2056100   114.8460000   -2.3314920    -56.8678800   
39550000000   -7.4173330    -4.6750090    -13.5089300   107.3787000   -13.5152800   107.3763000   -2.3212720    -60.2876500   
39600000000   -6.9610390    -5.1564350    -14.0125400   100.8395000   -14.0190600   100.8371000   -2.4430780    -63.9056500   
39650000000   -6.3437520    -6.8632470    -14.5008100   97.8612200    -14.5044700   97.8669900    -2.6967310    -65.8497800   
39700000000   -5.9086420    -9.7082370    -14.2403600   96.1294500    -14.2496300   96.1471400    -2.7400230    -65.7088400   
39750000000   -5.5983430    -12.9179600   -13.6738000   90.6879700    -13.6785400   90.7147100    -2.4736540    -66.6365200   
39800000000   -5.3199630    -15.4218100   -13.3167700   83.4847600    -13.3228400   83.5199200    -2.2101110    -68.9945000   
39850000000   -5.0199290    -18.0838000   -13.1122400   76.3062900    -13.1178900   76.3184800    -2.0053770    -71.7882500   
39900000000   -4.6682420    -20.5491200   -12.9744100   69.5023700    -12.9783600   69.5036500    -1.8597120    -74.6026500   
39950000000   -4.3942190    -23.2067100   -12.8510500   62.9771800    -12.8573500   62.9835300    -1.7494610    -77.5091400   
40000000000   -4.0729630    -26.3873300   -12.7464700   56.7419800    -12.7497400   56.7647500    -1.6666360    -80.4328800   
